B Ga N                                  
   1.00000000000000     
     9.5115513127995257    0.0000000000000000    0.0000000000000000
     4.7557756563997629    8.2372459814428662    0.0000000000000000
     0.0000000000000000    0.0000000000000000   15.4957914702259121
   B    Ga   N 
     4    50    54
Direct
  0.4539049380808393  0.4397142195083745  0.4971695922711348
  0.6693742270387375  0.3319795443415003  0.3358261945766472
  0.1199564531646260  0.1066884434915636  0.1649396031090120
  0.3340117705463044  0.9996607815661775  0.0052950046275342
  0.0069433056700490  0.0019645737165064  0.0058817243462670
  0.9986619844923226  0.0093073697554829  0.3282302946495648
  0.1107033524386338  0.1113149938545561  0.5001414995322406
  0.9999037737214422  0.0007110246422783  0.6661633940886347
  0.1141365602428550  0.1095983899524455  0.8390187942063108
  0.0069432873677897  0.3244254539467804  0.0058817243462670
  0.1132806909252793  0.4379977628447236  0.1676250845684777
  0.9986619661900633  0.3253639790855303  0.3282302946495648
  0.1163633692578330  0.4445977502190317  0.4973442614425991
  0.9999037554191830  0.3327185349696151  0.6661633940886347
  0.1117192419259752  0.4430237333356217  0.8334361272474169
  0.0007597506346286  0.6662868005004796  0.0000499870819652
  0.1132806726230200  0.7820549229822618  0.1676250845684777
  0.9992787567564037  0.6670272974395886  0.3320888227115475
  0.1163633509555737  0.7723722572754070  0.4973442614425991
  0.0004389195429653  0.6664472160463077  0.6656029058618387
  0.1117192236237159  0.7785904014906748  0.8334361272474169
  0.4342291384783223  0.1103995875801047  0.1642323619399662
  0.3271807903775468  0.0030762716505564  0.3302150908493928
  0.4455943864941432  0.1153647711338124  0.4979239425168984
  0.3333648489734244  0.9999842423526175  0.6667293431714043
  0.4407078058889624  0.1098614382191556  0.8384555551438666
  0.3322343413312296  0.3282966113546664  0.0017049065309962
  0.4490309794168610  0.4421511988403637  0.1711038533217391
  0.3421419641779408  0.3339485902036188  0.3360742023730694
  0.3368947037794499  0.3352764952520673  0.6624519853879889
  0.4440035837975245  0.4446648966500319  0.8346293135059071
  0.3322343779357482  0.6728023626905042  0.0017049065309962
  0.4342291567805816  0.7887046144346570  0.1642323619399662
  0.3421420007824594  0.6572427609948335  0.3360742023730694
  0.4455944047964024  0.7723741828651214  0.4979239425168984
  0.3368947403839684  0.6611621163448831  0.6624519853879889
  0.4407078241912217  0.7827640963849589  0.8384555551438666
  0.6614147300729769  0.9998619395392581  0.0016582366645252
  0.7801081931576448  0.1177905840808151  0.1711999966591193
  0.6642804092564560  0.0070236910760642  0.3310939726423072
  0.7694372915590861  0.1214047434144661  0.4950152332304185
  0.6660401604015007  0.0009425770171489  0.6662722489054005
  0.7780847507377118  0.1115870815775111  0.8339133047115084
  0.6664650110549672  0.3334341523333819  0.0004666248506950
  0.7801082287261849  0.4354345635999337  0.1711999966591193
  0.7694373271276262  0.4424913058648485  0.4950152332304185
  0.6611026921953425  0.3361153117631943  0.6636313591082299
  0.7780847863062519  0.4436615085231850  0.8339133047115084
  0.6614147473392578  0.6720566644117483  0.0016582366645252
  0.7780182204691002  0.7776575688177942  0.1660945721507403
  0.6642804265227369  0.6620292336914630  0.3310939726423072
  0.7776732421673316  0.7778300579686785  0.4982736647012587
  0.6660401776677816  0.6663505966053336  0.6662722489054005
  0.7773239959696738  0.7780046810675074  0.8336933610837036
  0.1400557035945269  0.0966388182766096  0.0525793331677349
  0.0177277500193824  0.0165802812412394  0.1995101053061816
  0.1110149346457874  0.1111592027509758  0.3762317725075022
  0.9973249355568541  0.0005357981312386  0.5391885968226404
  0.1125536336387825  0.1103898532544818  0.7109997697608108
  0.9997593615405407  0.0004337069524354  0.8780135925103352
  0.1109212990243691  0.4449481398855752  0.0423614573113511
  0.0177277317171232  0.2990253020727209  0.1995101053061816
  0.1098418488181423  0.4420705178793156  0.3708391546850223
  0.9973249172545948  0.3354725996452359  0.5391885968226404
  0.1136338323795485  0.4427334991740040  0.7059349230615695
  0.9997593432382814  0.3331402648403525  0.8780135925103352
  0.1109212807221098  0.7774639378423274  0.0423614573113511
  0.0008054738303898  0.6662639389025955  0.2068303015625332
  0.1098418305158830  0.7814210100548138  0.3708391546850223
  0.0006278752326523  0.6663527382014678  0.5394399629140949
  0.1136338140772892  0.7769660451987193  0.7059349230615695
  0.0005474928870086  0.6663929293742896  0.8736889735909088
  0.4281996569611337  0.0948048771019572  0.0369661262628043
  0.3010072056113060  0.0161630640336767  0.2036732089662294
  0.4431109378350726  0.1096571774395159  0.3724211006894009
  0.3345827100908423  0.9993753117939121  0.5406892839448076
  0.4426265369898559  0.1124714967209428  0.7092666629877158
  0.3300670556347782  0.0016331390219406  0.8959189142844011
  0.4452823559243200  0.4440255105866342  0.0441471480112909
  0.3357819626284311  0.3316571234855274  0.2090568287484444
  0.4732212164766167  0.4300560803104858  0.3847760596616254
  0.3513400875145010  0.3485692310746984  0.5319937515305853
  0.4438668194799362  0.4447332788088332  0.7096108059846600
  0.3331258098500669  0.3337092416390774  0.8761814518799795
  0.4281996752633930  0.8103288064299861  0.0369661262628043
  0.3357819992329496  0.6658942292624417  0.2090568287484444
  0.4431109561373319  0.7805652252184885  0.3724211006894009
  0.3513401241190195  0.6334239967872008  0.5319937515305853
  0.4426265552921151  0.7782353067822783  0.7092666629877158
  0.3331258464545854  0.6664982638872559  0.8761814518799795
  0.7759589951307859  0.1128863908766036  0.0444860444173898
  0.6638487290114199  0.0021930226645352  0.2052808050470318
  0.7641077337243942  0.1419744851097136  0.3667383854346795
  0.6677952076263196  0.0011083268492911  0.5391508542655572
  0.7769250098020279  0.1132381463686229  0.7068640836532438
  0.6660403818301504  0.0006623674239492  0.8753213624905882
  0.7759590306993260  0.4444879548310041  0.0444860444173898
  0.6637985946938088  0.3347673605139576  0.2291925838520896
  0.7641077692929343  0.4272511220043000  0.3667383854346795
  0.6354217385025649  0.3489557886095795  0.5357726859154042
  0.7769250453705681  0.4431701846677569  0.7068640836532438
  0.6664158129757141  0.3334587513730085  0.8752408149499544
  0.7785012672402729  0.7774160454322114  0.0409330592548827
  0.6638487462777007  0.6672915823480210  0.2052808050470318
  0.7756249327464175  0.7788542126791356  0.3721895249402962
  0.6677952248926005  0.6644297995483726  0.5391508542655572
  0.7776551575426041  0.7778391002810423  0.7071891193685644
  0.6660403990964312  0.6666305847698908  0.8753213624905882
 
  0.00000000E+00  0.00000000E+00  0.00000000E+00
  0.00000000E+00  0.00000000E+00  0.00000000E+00
  0.00000000E+00  0.00000000E+00  0.00000000E+00
  0.00000000E+00  0.00000000E+00  0.00000000E+00
  0.00000000E+00  0.00000000E+00  0.00000000E+00
  0.00000000E+00  0.00000000E+00  0.00000000E+00
  0.00000000E+00  0.00000000E+00  0.00000000E+00
  0.00000000E+00  0.00000000E+00  0.00000000E+00
  0.00000000E+00  0.00000000E+00  0.00000000E+00
  0.00000000E+00  0.00000000E+00  0.00000000E+00
  0.00000000E+00  0.00000000E+00  0.00000000E+00
  0.00000000E+00  0.00000000E+00  0.00000000E+00
  0.00000000E+00  0.00000000E+00  0.00000000E+00
  0.00000000E+00  0.00000000E+00  0.00000000E+00
  0.00000000E+00  0.00000000E+00  0.00000000E+00
  0.00000000E+00  0.00000000E+00  0.00000000E+00
  0.00000000E+00  0.00000000E+00  0.00000000E+00
  0.00000000E+00  0.00000000E+00  0.00000000E+00
  0.00000000E+00  0.00000000E+00  0.00000000E+00
  0.00000000E+00  0.00000000E+00  0.00000000E+00
  0.00000000E+00  0.00000000E+00  0.00000000E+00
  0.00000000E+00  0.00000000E+00  0.00000000E+00
  0.00000000E+00  0.00000000E+00  0.00000000E+00
  0.00000000E+00  0.00000000E+00  0.00000000E+00
  0.00000000E+00  0.00000000E+00  0.00000000E+00
  0.00000000E+00  0.00000000E+00  0.00000000E+00
  0.00000000E+00  0.00000000E+00  0.00000000E+00
  0.00000000E+00  0.00000000E+00  0.00000000E+00
  0.00000000E+00  0.00000000E+00  0.00000000E+00
  0.00000000E+00  0.00000000E+00  0.00000000E+00
  0.00000000E+00  0.00000000E+00  0.00000000E+00
  0.00000000E+00  0.00000000E+00  0.00000000E+00
  0.00000000E+00  0.00000000E+00  0.00000000E+00
  0.00000000E+00  0.00000000E+00  0.00000000E+00
  0.00000000E+00  0.00000000E+00  0.00000000E+00
  0.00000000E+00  0.00000000E+00  0.00000000E+00
  0.00000000E+00  0.00000000E+00  0.00000000E+00
  0.00000000E+00  0.00000000E+00  0.00000000E+00
  0.00000000E+00  0.00000000E+00  0.00000000E+00
  0.00000000E+00  0.00000000E+00  0.00000000E+00
  0.00000000E+00  0.00000000E+00  0.00000000E+00
  0.00000000E+00  0.00000000E+00  0.00000000E+00
  0.00000000E+00  0.00000000E+00  0.00000000E+00
  0.00000000E+00  0.00000000E+00  0.00000000E+00
  0.00000000E+00  0.00000000E+00  0.00000000E+00
  0.00000000E+00  0.00000000E+00  0.00000000E+00
  0.00000000E+00  0.00000000E+00  0.00000000E+00
  0.00000000E+00  0.00000000E+00  0.00000000E+00
  0.00000000E+00  0.00000000E+00  0.00000000E+00
  0.00000000E+00  0.00000000E+00  0.00000000E+00
  0.00000000E+00  0.00000000E+00  0.00000000E+00
  0.00000000E+00  0.00000000E+00  0.00000000E+00
  0.00000000E+00  0.00000000E+00  0.00000000E+00
  0.00000000E+00  0.00000000E+00  0.00000000E+00
  0.00000000E+00  0.00000000E+00  0.00000000E+00
  0.00000000E+00  0.00000000E+00  0.00000000E+00
  0.00000000E+00  0.00000000E+00  0.00000000E+00
  0.00000000E+00  0.00000000E+00  0.00000000E+00
  0.00000000E+00  0.00000000E+00  0.00000000E+00
  0.00000000E+00  0.00000000E+00  0.00000000E+00
  0.00000000E+00  0.00000000E+00  0.00000000E+00
  0.00000000E+00  0.00000000E+00  0.00000000E+00
  0.00000000E+00  0.00000000E+00  0.00000000E+00
  0.00000000E+00  0.00000000E+00  0.00000000E+00
  0.00000000E+00  0.00000000E+00  0.00000000E+00
  0.00000000E+00  0.00000000E+00  0.00000000E+00
  0.00000000E+00  0.00000000E+00  0.00000000E+00
  0.00000000E+00  0.00000000E+00  0.00000000E+00
  0.00000000E+00  0.00000000E+00  0.00000000E+00
  0.00000000E+00  0.00000000E+00  0.00000000E+00
  0.00000000E+00  0.00000000E+00  0.00000000E+00
  0.00000000E+00  0.00000000E+00  0.00000000E+00
  0.00000000E+00  0.00000000E+00  0.00000000E+00
  0.00000000E+00  0.00000000E+00  0.00000000E+00
  0.00000000E+00  0.00000000E+00  0.00000000E+00
  0.00000000E+00  0.00000000E+00  0.00000000E+00
  0.00000000E+00  0.00000000E+00  0.00000000E+00
  0.00000000E+00  0.00000000E+00  0.00000000E+00
  0.00000000E+00  0.00000000E+00  0.00000000E+00
  0.00000000E+00  0.00000000E+00  0.00000000E+00
  0.00000000E+00  0.00000000E+00  0.00000000E+00
  0.00000000E+00  0.00000000E+00  0.00000000E+00
  0.00000000E+00  0.00000000E+00  0.00000000E+00
  0.00000000E+00  0.00000000E+00  0.00000000E+00
  0.00000000E+00  0.00000000E+00  0.00000000E+00
  0.00000000E+00  0.00000000E+00  0.00000000E+00
  0.00000000E+00  0.00000000E+00  0.00000000E+00
  0.00000000E+00  0.00000000E+00  0.00000000E+00
  0.00000000E+00  0.00000000E+00  0.00000000E+00
  0.00000000E+00  0.00000000E+00  0.00000000E+00
  0.00000000E+00  0.00000000E+00  0.00000000E+00
  0.00000000E+00  0.00000000E+00  0.00000000E+00
  0.00000000E+00  0.00000000E+00  0.00000000E+00
  0.00000000E+00  0.00000000E+00  0.00000000E+00
  0.00000000E+00  0.00000000E+00  0.00000000E+00
  0.00000000E+00  0.00000000E+00  0.00000000E+00
  0.00000000E+00  0.00000000E+00  0.00000000E+00
  0.00000000E+00  0.00000000E+00  0.00000000E+00
  0.00000000E+00  0.00000000E+00  0.00000000E+00
  0.00000000E+00  0.00000000E+00  0.00000000E+00
  0.00000000E+00  0.00000000E+00  0.00000000E+00
  0.00000000E+00  0.00000000E+00  0.00000000E+00
  0.00000000E+00  0.00000000E+00  0.00000000E+00
  0.00000000E+00  0.00000000E+00  0.00000000E+00
  0.00000000E+00  0.00000000E+00  0.00000000E+00
  0.00000000E+00  0.00000000E+00  0.00000000E+00
  0.00000000E+00  0.00000000E+00  0.00000000E+00
  0.00000000E+00  0.00000000E+00  0.00000000E+00
