B Ga N                                  
   1.00000000000000     
     9.5528464650855724    0.0000000000000000    0.0000000000000000
     4.7764232325427862    8.2730086363489654    0.0000000000000000
     0.0000000000000000    0.0000000000000000   15.5787429185007902
   B    Ga   N 
     4    50    54
Direct
  0.4444444467389488  0.4444444651793233  0.1666666608395744
  0.3333333153764002  0.3333333333333357  0.3333333223148287
  0.4444444467389488  0.4444444651793233  0.4999999831544031
  0.3333333153764002  0.3333333333333357  0.6666666776851713
  0.0000000000000000  0.0000000000000000  0.0000000000000000
  0.1111110764557708  0.1111111318459876  0.1666666608395744
  0.0000000000000000  0.0000000000000000  0.3333333223148287
  0.1111110764557708  0.1111111318459876  0.4999999831544031
  0.0000000000000000  0.0000000000000000  0.6666666776851713
  0.1111110764557708  0.1111111318459876  0.8333333385247457
  0.9999999816977407  0.3333333333333357  0.0000000000000000
  0.1111111130602893  0.4444444651793233  0.1666666608395744
  0.9999999816977407  0.3333333333333357  0.3333333223148287
  0.1111111130602893  0.4444444651793233  0.4999999831544031
  0.9999999816977407  0.3333333333333357  0.6666666776851713
  0.1111111130602893  0.4444444651793233  0.8333333385247457
  0.0000000183022593  0.6666666666666643  0.0000000000000000
  0.1111110947580300  0.7777777985126590  0.1666666608395744
  0.0000000183022593  0.6666666666666643  0.3333333223148287
  0.1111110947580300  0.7777777985126590  0.4999999831544031
  0.0000000183022593  0.6666666666666643  0.6666666776851713
  0.1111110947580300  0.7777777985126590  0.8333333385247457
  0.3333333336786595  0.0000000000000000  0.0000000000000000
  0.4444444101344303  0.1111111318459876  0.1666666608395744
  0.3333333336786595  0.0000000000000000  0.3333333223148287
  0.4444444101344303  0.1111111318459876  0.4999999831544031
  0.3333333336786595  0.0000000000000000  0.6666666776851713
  0.4444444101344303  0.1111111318459876  0.8333333385247457
  0.3333333153764002  0.3333333333333357  0.0000000000000000
  0.4444444467389488  0.4444444651793233  0.8333333385247457
  0.3333333519809187  0.6666666666666643  0.0000000000000000
  0.4444444284366895  0.7777777985126590  0.1666666608395744
  0.3333333519809187  0.6666666666666643  0.3333333223148287
  0.4444444284366895  0.7777777985126590  0.4999999831544031
  0.3333333519809187  0.6666666666666643  0.6666666776851713
  0.4444444284366895  0.7777777985126590  0.8333333385247457
  0.6666666673573189  0.0000000000000000  0.0000000000000000
  0.7777777438130897  0.1111111318459876  0.1666666608395744
  0.6666666673573189  0.0000000000000000  0.3333333223148287
  0.7777777438130897  0.1111111318459876  0.4999999831544031
  0.6666666673573189  0.0000000000000000  0.6666666776851713
  0.7777777438130897  0.1111111318459876  0.8333333385247457
  0.6666666490550597  0.3333333333333357  0.0000000000000000
  0.7777777793816298  0.4444444651793233  0.1666666608395744
  0.6666666490550597  0.3333333333333357  0.3333333223148287
  0.7777777793816298  0.4444444651793233  0.4999999831544031
  0.6666666490550597  0.3333333333333357  0.6666666776851713
  0.7777777793816298  0.4444444651793233  0.8333333385247457
  0.6666666846235998  0.6666666666666643  0.0000000000000000
  0.7777777610793706  0.7777777985126590  0.1666666608395744
  0.6666666846235998  0.6666666666666643  0.3333333223148287
  0.7777777610793706  0.7777777985126590  0.4999999831544031
  0.6666666846235998  0.6666666666666643  0.6666666776851713
  0.7777777610793706  0.7777777985126590  0.8333333385247457
  0.1111110764557708  0.1111111318459876  0.0411217992797859
  0.0000000000000000  0.0000000000000000  0.2077884601193603
  0.1111110764557708  0.1111111318459876  0.3744551215946146
  0.0000000000000000  0.0000000000000000  0.5411218161253828
  0.1111110764557708  0.1111111318459876  0.7077884769649572
  0.0000000000000000  0.0000000000000000  0.8744551378045315
  0.1111111130602893  0.4444444651793233  0.0411217992797859
  0.9999999816977407  0.3333333333333357  0.2077884601193603
  0.1111111130602893  0.4444444651793233  0.3744551215946146
  0.9999999816977407  0.3333333333333357  0.5411218161253828
  0.1111111130602893  0.4444444651793233  0.7077884769649572
  0.9999999816977407  0.3333333333333357  0.8744551378045315
  0.1111110947580300  0.7777777985126590  0.0411217992797859
  0.0000000183022593  0.6666666666666643  0.2077884601193603
  0.1111110947580300  0.7777777985126590  0.3744551215946146
  0.0000000183022593  0.6666666666666643  0.5411218161253828
  0.1111110947580300  0.7777777985126590  0.7077884769649572
  0.0000000183022593  0.6666666666666643  0.8744551378045315
  0.4444444101344303  0.1111111318459876  0.0411217992797859
  0.3333333336786595  0.0000000000000000  0.2077884601193603
  0.4444444101344303  0.1111111318459876  0.3744551215946146
  0.3333333336786595  0.0000000000000000  0.5411218161253828
  0.4444444101344303  0.1111111318459876  0.7077884769649572
  0.3333333336786595  0.0000000000000000  0.8744551378045315
  0.4444444467389488  0.4444444651793233  0.0411217992797859
  0.3333333153764002  0.3333333333333357  0.2077884601193603
  0.4444444467389488  0.4444444651793233  0.3744551215946146
  0.3333333153764002  0.3333333333333357  0.5411218161253828
  0.4444444467389488  0.4444444651793233  0.7077884769649572
  0.3333333153764002  0.3333333333333357  0.8744551378045315
  0.4444444284366895  0.7777777985126590  0.0411217992797859
  0.3333333519809187  0.6666666666666643  0.2077884601193603
  0.4444444284366895  0.7777777985126590  0.3744551215946146
  0.3333333519809187  0.6666666666666643  0.5411218161253828
  0.4444444284366895  0.7777777985126590  0.7077884769649572
  0.3333333519809187  0.6666666666666643  0.8744551378045315
  0.7777777438130897  0.1111111318459876  0.0411217992797859
  0.6666666673573189  0.0000000000000000  0.2077884601193603
  0.7777777438130897  0.1111111318459876  0.3744551215946146
  0.6666666673573189  0.0000000000000000  0.5411218161253828
  0.7777777438130897  0.1111111318459876  0.7077884769649572
  0.6666666673573189  0.0000000000000000  0.8744551378045315
  0.7777777793816298  0.4444444651793233  0.0411217992797859
  0.6666666490550597  0.3333333333333357  0.2077884601193603
  0.7777777793816298  0.4444444651793233  0.3744551215946146
  0.6666666490550597  0.3333333333333357  0.5411218161253828
  0.7777777793816298  0.4444444651793233  0.7077884769649572
  0.6666666490550597  0.3333333333333357  0.8744551378045315
  0.7777777610793706  0.7777777985126590  0.0411217992797859
  0.6666666846235998  0.6666666666666643  0.2077884601193603
  0.7777777610793706  0.7777777985126590  0.3744551215946146
  0.6666666846235998  0.6666666666666643  0.5411218161253828
  0.7777777610793706  0.7777777985126590  0.7077884769649572
  0.6666666846235998  0.6666666666666643  0.8744551378045315
 
  0.00000000E+00  0.00000000E+00  0.00000000E+00
  0.00000000E+00  0.00000000E+00  0.00000000E+00
  0.00000000E+00  0.00000000E+00  0.00000000E+00
  0.00000000E+00  0.00000000E+00  0.00000000E+00
  0.00000000E+00  0.00000000E+00  0.00000000E+00
  0.00000000E+00  0.00000000E+00  0.00000000E+00
  0.00000000E+00  0.00000000E+00  0.00000000E+00
  0.00000000E+00  0.00000000E+00  0.00000000E+00
  0.00000000E+00  0.00000000E+00  0.00000000E+00
  0.00000000E+00  0.00000000E+00  0.00000000E+00
  0.00000000E+00  0.00000000E+00  0.00000000E+00
  0.00000000E+00  0.00000000E+00  0.00000000E+00
  0.00000000E+00  0.00000000E+00  0.00000000E+00
  0.00000000E+00  0.00000000E+00  0.00000000E+00
  0.00000000E+00  0.00000000E+00  0.00000000E+00
  0.00000000E+00  0.00000000E+00  0.00000000E+00
  0.00000000E+00  0.00000000E+00  0.00000000E+00
  0.00000000E+00  0.00000000E+00  0.00000000E+00
  0.00000000E+00  0.00000000E+00  0.00000000E+00
  0.00000000E+00  0.00000000E+00  0.00000000E+00
  0.00000000E+00  0.00000000E+00  0.00000000E+00
  0.00000000E+00  0.00000000E+00  0.00000000E+00
  0.00000000E+00  0.00000000E+00  0.00000000E+00
  0.00000000E+00  0.00000000E+00  0.00000000E+00
  0.00000000E+00  0.00000000E+00  0.00000000E+00
  0.00000000E+00  0.00000000E+00  0.00000000E+00
  0.00000000E+00  0.00000000E+00  0.00000000E+00
  0.00000000E+00  0.00000000E+00  0.00000000E+00
  0.00000000E+00  0.00000000E+00  0.00000000E+00
  0.00000000E+00  0.00000000E+00  0.00000000E+00
  0.00000000E+00  0.00000000E+00  0.00000000E+00
  0.00000000E+00  0.00000000E+00  0.00000000E+00
  0.00000000E+00  0.00000000E+00  0.00000000E+00
  0.00000000E+00  0.00000000E+00  0.00000000E+00
  0.00000000E+00  0.00000000E+00  0.00000000E+00
  0.00000000E+00  0.00000000E+00  0.00000000E+00
  0.00000000E+00  0.00000000E+00  0.00000000E+00
  0.00000000E+00  0.00000000E+00  0.00000000E+00
  0.00000000E+00  0.00000000E+00  0.00000000E+00
  0.00000000E+00  0.00000000E+00  0.00000000E+00
  0.00000000E+00  0.00000000E+00  0.00000000E+00
  0.00000000E+00  0.00000000E+00  0.00000000E+00
  0.00000000E+00  0.00000000E+00  0.00000000E+00
  0.00000000E+00  0.00000000E+00  0.00000000E+00
  0.00000000E+00  0.00000000E+00  0.00000000E+00
  0.00000000E+00  0.00000000E+00  0.00000000E+00
  0.00000000E+00  0.00000000E+00  0.00000000E+00
  0.00000000E+00  0.00000000E+00  0.00000000E+00
  0.00000000E+00  0.00000000E+00  0.00000000E+00
  0.00000000E+00  0.00000000E+00  0.00000000E+00
  0.00000000E+00  0.00000000E+00  0.00000000E+00
  0.00000000E+00  0.00000000E+00  0.00000000E+00
  0.00000000E+00  0.00000000E+00  0.00000000E+00
  0.00000000E+00  0.00000000E+00  0.00000000E+00
  0.00000000E+00  0.00000000E+00  0.00000000E+00
  0.00000000E+00  0.00000000E+00  0.00000000E+00
  0.00000000E+00  0.00000000E+00  0.00000000E+00
  0.00000000E+00  0.00000000E+00  0.00000000E+00
  0.00000000E+00  0.00000000E+00  0.00000000E+00
  0.00000000E+00  0.00000000E+00  0.00000000E+00
  0.00000000E+00  0.00000000E+00  0.00000000E+00
  0.00000000E+00  0.00000000E+00  0.00000000E+00
  0.00000000E+00  0.00000000E+00  0.00000000E+00
  0.00000000E+00  0.00000000E+00  0.00000000E+00
  0.00000000E+00  0.00000000E+00  0.00000000E+00
  0.00000000E+00  0.00000000E+00  0.00000000E+00
  0.00000000E+00  0.00000000E+00  0.00000000E+00
  0.00000000E+00  0.00000000E+00  0.00000000E+00
  0.00000000E+00  0.00000000E+00  0.00000000E+00
  0.00000000E+00  0.00000000E+00  0.00000000E+00
  0.00000000E+00  0.00000000E+00  0.00000000E+00
  0.00000000E+00  0.00000000E+00  0.00000000E+00
  0.00000000E+00  0.00000000E+00  0.00000000E+00
  0.00000000E+00  0.00000000E+00  0.00000000E+00
  0.00000000E+00  0.00000000E+00  0.00000000E+00
  0.00000000E+00  0.00000000E+00  0.00000000E+00
  0.00000000E+00  0.00000000E+00  0.00000000E+00
  0.00000000E+00  0.00000000E+00  0.00000000E+00
  0.00000000E+00  0.00000000E+00  0.00000000E+00
  0.00000000E+00  0.00000000E+00  0.00000000E+00
  0.00000000E+00  0.00000000E+00  0.00000000E+00
  0.00000000E+00  0.00000000E+00  0.00000000E+00
  0.00000000E+00  0.00000000E+00  0.00000000E+00
  0.00000000E+00  0.00000000E+00  0.00000000E+00
  0.00000000E+00  0.00000000E+00  0.00000000E+00
  0.00000000E+00  0.00000000E+00  0.00000000E+00
  0.00000000E+00  0.00000000E+00  0.00000000E+00
  0.00000000E+00  0.00000000E+00  0.00000000E+00
  0.00000000E+00  0.00000000E+00  0.00000000E+00
  0.00000000E+00  0.00000000E+00  0.00000000E+00
  0.00000000E+00  0.00000000E+00  0.00000000E+00
  0.00000000E+00  0.00000000E+00  0.00000000E+00
  0.00000000E+00  0.00000000E+00  0.00000000E+00
  0.00000000E+00  0.00000000E+00  0.00000000E+00
  0.00000000E+00  0.00000000E+00  0.00000000E+00
  0.00000000E+00  0.00000000E+00  0.00000000E+00
  0.00000000E+00  0.00000000E+00  0.00000000E+00
  0.00000000E+00  0.00000000E+00  0.00000000E+00
  0.00000000E+00  0.00000000E+00  0.00000000E+00
  0.00000000E+00  0.00000000E+00  0.00000000E+00
  0.00000000E+00  0.00000000E+00  0.00000000E+00
  0.00000000E+00  0.00000000E+00  0.00000000E+00
  0.00000000E+00  0.00000000E+00  0.00000000E+00
  0.00000000E+00  0.00000000E+00  0.00000000E+00
  0.00000000E+00  0.00000000E+00  0.00000000E+00
  0.00000000E+00  0.00000000E+00  0.00000000E+00
  0.00000000E+00  0.00000000E+00  0.00000000E+00
  0.00000000E+00  0.00000000E+00  0.00000000E+00
