SYSTEM = GaN

PREC = normal
LREAL = Auto
ISMEAR = 0
SIGMA = 0.01

IBRION = 2
ISIF = 2
ENCUT = 600
NSW = 100

LORBIT = 11

#LCHARG = .FALSE.
