SYSTEM = GaN

PREC = A
LREAL = Auto
ISMEAR = 0
SIGMA = 0.01

ENCUT = 600
NSW = 0
NELMIN = 35
NELM = 1000

METAGGA = MBJ
LMETAGGA = .TRUE.
CMBJ = 1.587 !must be adjusted depending on system composition 

LORBIT = 11
LASPH = .TRUE.
ALGO = All

#LPARD=.TRUE. !for band decomposed charge densities
#IBAND = 480 !for band decomposed charge densities
