B Ga N                                  
   1.00000000000000     
     9.5281803199286319    0.0000000000000000    0.0000000000000000
     4.7640901599643160    8.2516471256563531    0.0000000000000000
     0.0000000000000000    0.0000000000000000   15.4918239994794256
   B    Ga   N 
     4    50    54
Direct
  0.4444444467389488  0.4444444651793233  0.4915544761008945
  0.6722464117926776  0.3305434519645303  0.3337851282635356
  0.3305434340075948  0.3305434519645303  0.3337851282635356
  0.3305434706121133  0.6722464294042823  0.3337851282635356
  0.9995571427890297  0.9995571427890297  0.0019495579911322
  0.1111110764557708  0.1111111318459876  0.1672865714094982
  0.0012129000018817  0.0012129000018817  0.3336775026977676
  0.1111110764557708  0.1111111318459876  0.4987722647615342
  0.9994198915530248  0.9994198915530248  0.6628202349327310
  0.1111110764557708  0.1111111318459876  0.8322923339775770
  0.9995571244867705  0.3342190477552691  0.0019495579911322
  0.1157887280235528  0.4420787135095594  0.1728024302937996
  0.0012128816996224  0.3309075333295795  0.3336775026977676
  0.1238449036663809  0.4422782406061572  0.4946614067622903
  0.9994198732507655  0.3344935502272932  0.6628202349327310
  0.1125139912698501  0.4439851568973836  0.8321562315917106
  0.0016678473376217  0.6658327521489795  0.0026861330712507
  0.1157887097212935  0.7754659352191595  0.1728024302937996
  0.0152732980129997  0.6590300268112941  0.3330189076728942
  0.1238448853641216  0.7672102324797336  0.4946614067622903
  0.0009158595733325  0.6662087460311241  0.6628314220248157
  0.1125139729675908  0.7768342285850380  0.8321562315917106
  0.3342190481005929  0.9995571427890297  0.0019495579911322
  0.4420786584646663  0.1157887468092511  0.1728024302937996
  0.3309075336749032  0.0012129000018817  0.3336775026977676
  0.4422781855612641  0.1238449224520792  0.4946614067622903
  0.3344935505726170  0.9994198915530248  0.6628202349327310
  0.4439851018524905  0.1125140100555484  0.8321562315917106
  0.3345342659920618  0.3345342839489973  0.0039631578573847
  0.4444444467389488  0.4444444651793233  0.1859044133487373
  0.3371191549316777  0.3371191728886132  0.6609040322372266
  0.4444444467389488  0.4444444651793233  0.8348927296391935
  0.3345343025965803  0.6642647654353482  0.0039631578573847
  0.4420786767669256  0.7754659352191595  0.1728024302937996
  0.4422782038635233  0.7672102324797336  0.4946614067622903
  0.3371191915361962  0.6590949875561165  0.6609040322372266
  0.4439851201547498  0.7768342285850380  0.8321562315917106
  0.6658327528396342  0.0016678290353624  0.0026861330712507
  0.7754658805195902  0.1157887468092511  0.1728024302937996
  0.6590300275019487  0.0152732797107404  0.3330189076728942
  0.7672101777801643  0.1238449224520792  0.4946614067622903
  0.6662087467217788  0.0009158412710732  0.6628314220248157
  0.7768341738854687  0.1125140100555484  0.8321562315917106
  0.6642647478237436  0.3345342839489973  0.0039631578573847
  0.7754659160881303  0.4420787135095594  0.1728024302937996
  0.7672102133487044  0.4422782406061572  0.4946614067622903
  0.6590949699445119  0.3371191728886132  0.6609040322372266
  0.7768342094540088  0.4439851568973836  0.8321562315917106
  0.6658327701059150  0.6658327521489795  0.0026861330712507
  0.7777777610793706  0.7777777985126590  0.1686470648816965
  0.6590300447682296  0.6590300268112941  0.3330189076728942
  0.7777777610793706  0.7777777985126590  0.4965215463331702
  0.6662087639880596  0.6662087460311241  0.6628314220248157
  0.7777777610793706  0.7777777985126590  0.8330232327393432
  0.1111110764557708  0.1111111318459876  0.0416336017508172
  0.0002240834521814  0.0002240834521814  0.2088354741224165
  0.1111110764557708  0.1111111318459876  0.3742990772365147
  0.9981022365217385  0.9981022365217385  0.5354560998041578
  0.1111110764557708  0.1111111318459876  0.7047900092695585
  0.9995586543189248  0.9995586543189248  0.8745743654848113
  0.1130290389783042  0.4432333337225600  0.0456924100241238
  0.0002240651499221  0.3328851664289800  0.2088354741224165
  0.1430495456159306  0.4268799257298497  0.3680647110539610
  0.9981022182194792  0.3371288602898588  0.5354560998041578
  0.1136354505807802  0.4433053398969022  0.7045026368789920
  0.9995586360166655  0.3342160246954933  0.8745743654848113
  0.1130290206760449  0.7770710040514075  0.0456924100241238
  0.0005091934504193  0.6664120790925807  0.2086149787974563
  0.1430495273136714  0.7634039054064914  0.3680647110539610
  0.0019513314657047  0.6656910100849416  0.5356614714290870
  0.1136354322785209  0.7763925862745893  0.7045026368789920
  0.0008378466958234  0.6662477524698858  0.8750465952222584
  0.4432332786776669  0.1130290577640025  0.0456924100241238
  0.3328851667743038  0.0002240834521814  0.2088354741224165
  0.4268798706849566  0.1430495644016290  0.3680647110539610
  0.3371288606351825  0.9981022365217385  0.5354560998041578
  0.4433052848520092  0.1136354693664785  0.7045026368789920
  0.3342160250408170  0.9995586543189248  0.8745743654848113
  0.4444444467389488  0.4444444651793233  0.0540263545432538
  0.3331159869435183  0.3331160049004538  0.2298995905143428
  0.4444444467389488  0.4444444651793233  0.3795866050451409
  0.3507376014884116  0.3507376194453471  0.5330446418788810
  0.4444444467389488  0.4444444651793233  0.7101771455161625
  0.3335138038116128  0.3335138217685483  0.8770571228552839
  0.4432332969799262  0.7770710040514075  0.0456924100241238
  0.3331160235480368  0.6671013235324352  0.2298995905143428
  0.4268798889872158  0.7634039054064914  0.3680647110539610
  0.3507376380929301  0.6318580944426344  0.5330446418788810
  0.4433053031542684  0.7763925862745893  0.7045026368789920
  0.3335138404161313  0.6663056897962463  0.8770571228552839
  0.7770709493518382  0.1130290577640025  0.0456924100241238
  0.6664120797832354  0.0005091751481601  0.2086149787974563
  0.7634038507069221  0.1430495644016290  0.3680647110539610
  0.6656910107755962  0.0019513131634454  0.5356614714290870
  0.7763925315750200  0.1136354693664785  0.7045026368789920
  0.6662477531605404  0.0008378283935642  0.8750465952222584
  0.7770709849203783  0.4432333337225600  0.0456924100241238
  0.6671013059208306  0.3331160049004538  0.2298995905143428
  0.7634038862754622  0.4268799257298497  0.3680647110539610
  0.6318580768310298  0.3507376194453471  0.5330446418788810
  0.7763925671435601  0.4433053398969022  0.7045026368789920
  0.6663056721846417  0.3335138217685483  0.8770571228552839
  0.7777777610793706  0.7777777985126590  0.0422708365175524
  0.6664120970495162  0.6664120790925807  0.2086149787974563
  0.7777777610793706  0.7777777985126590  0.3709204710949692
  0.6656910280418771  0.6656910100849416  0.5356614714290870
  0.7777777610793706  0.7777777985126590  0.7052202052990495
  0.6662477704268213  0.6662477524698858  0.8750465952222584
 
  0.00000000E+00  0.00000000E+00  0.00000000E+00
  0.00000000E+00  0.00000000E+00  0.00000000E+00
  0.00000000E+00  0.00000000E+00  0.00000000E+00
  0.00000000E+00  0.00000000E+00  0.00000000E+00
  0.00000000E+00  0.00000000E+00  0.00000000E+00
  0.00000000E+00  0.00000000E+00  0.00000000E+00
  0.00000000E+00  0.00000000E+00  0.00000000E+00
  0.00000000E+00  0.00000000E+00  0.00000000E+00
  0.00000000E+00  0.00000000E+00  0.00000000E+00
  0.00000000E+00  0.00000000E+00  0.00000000E+00
  0.00000000E+00  0.00000000E+00  0.00000000E+00
  0.00000000E+00  0.00000000E+00  0.00000000E+00
  0.00000000E+00  0.00000000E+00  0.00000000E+00
  0.00000000E+00  0.00000000E+00  0.00000000E+00
  0.00000000E+00  0.00000000E+00  0.00000000E+00
  0.00000000E+00  0.00000000E+00  0.00000000E+00
  0.00000000E+00  0.00000000E+00  0.00000000E+00
  0.00000000E+00  0.00000000E+00  0.00000000E+00
  0.00000000E+00  0.00000000E+00  0.00000000E+00
  0.00000000E+00  0.00000000E+00  0.00000000E+00
  0.00000000E+00  0.00000000E+00  0.00000000E+00
  0.00000000E+00  0.00000000E+00  0.00000000E+00
  0.00000000E+00  0.00000000E+00  0.00000000E+00
  0.00000000E+00  0.00000000E+00  0.00000000E+00
  0.00000000E+00  0.00000000E+00  0.00000000E+00
  0.00000000E+00  0.00000000E+00  0.00000000E+00
  0.00000000E+00  0.00000000E+00  0.00000000E+00
  0.00000000E+00  0.00000000E+00  0.00000000E+00
  0.00000000E+00  0.00000000E+00  0.00000000E+00
  0.00000000E+00  0.00000000E+00  0.00000000E+00
  0.00000000E+00  0.00000000E+00  0.00000000E+00
  0.00000000E+00  0.00000000E+00  0.00000000E+00
  0.00000000E+00  0.00000000E+00  0.00000000E+00
  0.00000000E+00  0.00000000E+00  0.00000000E+00
  0.00000000E+00  0.00000000E+00  0.00000000E+00
  0.00000000E+00  0.00000000E+00  0.00000000E+00
  0.00000000E+00  0.00000000E+00  0.00000000E+00
  0.00000000E+00  0.00000000E+00  0.00000000E+00
  0.00000000E+00  0.00000000E+00  0.00000000E+00
  0.00000000E+00  0.00000000E+00  0.00000000E+00
  0.00000000E+00  0.00000000E+00  0.00000000E+00
  0.00000000E+00  0.00000000E+00  0.00000000E+00
  0.00000000E+00  0.00000000E+00  0.00000000E+00
  0.00000000E+00  0.00000000E+00  0.00000000E+00
  0.00000000E+00  0.00000000E+00  0.00000000E+00
  0.00000000E+00  0.00000000E+00  0.00000000E+00
  0.00000000E+00  0.00000000E+00  0.00000000E+00
  0.00000000E+00  0.00000000E+00  0.00000000E+00
  0.00000000E+00  0.00000000E+00  0.00000000E+00
  0.00000000E+00  0.00000000E+00  0.00000000E+00
  0.00000000E+00  0.00000000E+00  0.00000000E+00
  0.00000000E+00  0.00000000E+00  0.00000000E+00
  0.00000000E+00  0.00000000E+00  0.00000000E+00
  0.00000000E+00  0.00000000E+00  0.00000000E+00
  0.00000000E+00  0.00000000E+00  0.00000000E+00
  0.00000000E+00  0.00000000E+00  0.00000000E+00
  0.00000000E+00  0.00000000E+00  0.00000000E+00
  0.00000000E+00  0.00000000E+00  0.00000000E+00
  0.00000000E+00  0.00000000E+00  0.00000000E+00
  0.00000000E+00  0.00000000E+00  0.00000000E+00
  0.00000000E+00  0.00000000E+00  0.00000000E+00
  0.00000000E+00  0.00000000E+00  0.00000000E+00
  0.00000000E+00  0.00000000E+00  0.00000000E+00
  0.00000000E+00  0.00000000E+00  0.00000000E+00
  0.00000000E+00  0.00000000E+00  0.00000000E+00
  0.00000000E+00  0.00000000E+00  0.00000000E+00
  0.00000000E+00  0.00000000E+00  0.00000000E+00
  0.00000000E+00  0.00000000E+00  0.00000000E+00
  0.00000000E+00  0.00000000E+00  0.00000000E+00
  0.00000000E+00  0.00000000E+00  0.00000000E+00
  0.00000000E+00  0.00000000E+00  0.00000000E+00
  0.00000000E+00  0.00000000E+00  0.00000000E+00
  0.00000000E+00  0.00000000E+00  0.00000000E+00
  0.00000000E+00  0.00000000E+00  0.00000000E+00
  0.00000000E+00  0.00000000E+00  0.00000000E+00
  0.00000000E+00  0.00000000E+00  0.00000000E+00
  0.00000000E+00  0.00000000E+00  0.00000000E+00
  0.00000000E+00  0.00000000E+00  0.00000000E+00
  0.00000000E+00  0.00000000E+00  0.00000000E+00
  0.00000000E+00  0.00000000E+00  0.00000000E+00
  0.00000000E+00  0.00000000E+00  0.00000000E+00
  0.00000000E+00  0.00000000E+00  0.00000000E+00
  0.00000000E+00  0.00000000E+00  0.00000000E+00
  0.00000000E+00  0.00000000E+00  0.00000000E+00
  0.00000000E+00  0.00000000E+00  0.00000000E+00
  0.00000000E+00  0.00000000E+00  0.00000000E+00
  0.00000000E+00  0.00000000E+00  0.00000000E+00
  0.00000000E+00  0.00000000E+00  0.00000000E+00
  0.00000000E+00  0.00000000E+00  0.00000000E+00
  0.00000000E+00  0.00000000E+00  0.00000000E+00
  0.00000000E+00  0.00000000E+00  0.00000000E+00
  0.00000000E+00  0.00000000E+00  0.00000000E+00
  0.00000000E+00  0.00000000E+00  0.00000000E+00
  0.00000000E+00  0.00000000E+00  0.00000000E+00
  0.00000000E+00  0.00000000E+00  0.00000000E+00
  0.00000000E+00  0.00000000E+00  0.00000000E+00
  0.00000000E+00  0.00000000E+00  0.00000000E+00
  0.00000000E+00  0.00000000E+00  0.00000000E+00
  0.00000000E+00  0.00000000E+00  0.00000000E+00
  0.00000000E+00  0.00000000E+00  0.00000000E+00
  0.00000000E+00  0.00000000E+00  0.00000000E+00
  0.00000000E+00  0.00000000E+00  0.00000000E+00
  0.00000000E+00  0.00000000E+00  0.00000000E+00
  0.00000000E+00  0.00000000E+00  0.00000000E+00
  0.00000000E+00  0.00000000E+00  0.00000000E+00
  0.00000000E+00  0.00000000E+00  0.00000000E+00
  0.00000000E+00  0.00000000E+00  0.00000000E+00
  0.00000000E+00  0.00000000E+00  0.00000000E+00
