B Ga N                                  
   1.00000000000000     
     9.5184987147480271    0.0000000000000000    0.0000000000000000
     4.7592493573740136    8.2432626086890171    0.0000000000000000
     0.0000000000000000    0.0000000000000000   15.4907406137803569
   B    Ga   N 
     4    50    54
Direct
  0.4488064096956350  0.4357205392659580  0.4942809698164439
  0.6691291357073936  0.3273256453904523  0.3351897122044889
  0.3368785166669497  0.3273256453904523  0.3351897122044889
  0.1104517705708332  0.1124297436158557  0.4966850135124830
  0.9987506987788493  0.0002720447681313  0.0010924276237176
  0.1110719478125191  0.1111893891324840  0.1678221386740688
  0.9975924245286336  0.0081017757290809  0.3382088819434443
  0.0022921376357772  0.0040431216359167  0.6603292416550985
  0.1106662767594315  0.1120007312386662  0.8336012923646834
  0.9992603137900105  0.3348126691487892  0.0029233790350744
  0.1163489782446305  0.4412793116818818  0.1747403274224339
  0.0032309500927497  0.3268713965433108  0.3389028233405185
  0.1253950110711273  0.4372540355285253  0.4948742702662585
  0.0027264562873199  0.3278803841541773  0.6590437063171422
  0.1116016334972727  0.4431542770107697  0.8309182520426077
  0.0019121505291224  0.6649800291547692  0.0014500668531880
  0.1120162082516529  0.7784705019684566  0.1700438877426294
  0.0072027014744762  0.6618053118176022  0.3336289810434252
  0.1179199732647263  0.7762595253216276  0.4981985733441121
  0.0002822902944999  0.6657140240214972  0.6635368725490665
  0.1120903952807666  0.7778616558731102  0.8307444019252017
  0.3343105901316790  0.0002720447681313  0.0010924276237176
  0.4416777125982492  0.1153101634582256  0.1737833429023752
  0.3276391334209450  0.0081017757290809  0.3382088819434443
  0.4366350117076436  0.1243919583710706  0.4951263033169937
  0.3269980744069656  0.0040431216359167  0.6603292416550985
  0.4439910341650517  0.1116754313743229  0.8307685472641211
  0.3337363967293427  0.3331278462518128  0.0024007631288683
  0.4464488408281042  0.4404356770010125  0.1782071967298720
  0.3370455763413815  0.3367853418490157  0.6614940528836541
  0.4442179183590511  0.4448975219391187  0.8346904584133128
  0.3339733663554227  0.6653866379176492  0.0032599600672825
  0.4428466114872620  0.7784705019684566  0.1700438877426294
  0.3409014631762446  0.6515304442760197  0.3390088276943857
  0.4391538231210248  0.7762595253216276  0.4981985733441121
  0.3368991360242219  0.6595350985800508  0.6595653767296383
  0.4433812705535018  0.7778616558731102  0.8307444019252017
  0.6656625909505252  0.0020081528135876  0.0025212414144846
  0.7763454097370328  0.1153101634582256  0.1737833429023752
  0.6598628244552245  0.0136076858041889  0.3336769251325080
  0.7723063157147934  0.1243919583710706  0.4951263033169937
  0.6665304445155726  0.0002724456834926  0.6623122932815946
  0.7776668202541401  0.1116754313743229  0.8307685472641211
  0.6664690547836400  0.3331278462518128  0.0024007631288683
  0.7757050676947301  0.4412793116818818  0.1747403274224339
  0.7706843110215900  0.4372540355285253  0.4948742702662585
  0.6595023795743984  0.3367853418490157  0.6614940528836541
  0.7785774471132001  0.4431542770107697  0.8309182520426077
  0.6664411899086318  0.6649800291547692  0.0014500668531880
  0.7781841262541818  0.7769650681630296  0.1677840705213924
  0.6643253563004450  0.6618053118176022  0.3336289810434252
  0.7783385075145262  0.7766563056423550  0.4969866673782732
  0.6673370552765263  0.6657140240214972  0.6635368725490665
  0.7775906977952616  0.7781519250808842  0.8329727132618885
  0.1112135033605668  0.1109062780364027  0.0419424555900321
  0.0009542576090240  0.0016765862762469  0.2118848859213216
  0.1109638239061610  0.1114056369452143  0.3923049136852086
  0.0134594165696527  0.0178353791016477  0.5320229340372435
  0.1105919896700485  0.1121493054174252  0.7081303527695368
  0.9991678857949182  0.9997918030213313  0.8741407837315691
  0.1133721386677564  0.4430003716824942  0.0466507105220515
  0.0011305156775094  0.3310722653737983  0.2128465517987763
  0.1449968232950525  0.4279449699086939  0.3686742142424251
  0.0144313661348150  0.3044705644591943  0.5301566758373184
  0.1125703453931450  0.4414835641897170  0.7028936926573337
  0.9992585275424588  0.3348162416438925  0.8756075339407445
  0.1109046191976546  0.7783541094244342  0.0433767764028445
  0.0002671795084552  0.6666831133719597  0.2086891545477414
  0.1100638434767944  0.7806374653120258  0.3738578723114330
  0.0019594619924774  0.6638840217553650  0.5373081815151934
  0.1124945794596570  0.7788260497260566  0.7021908522234455
  0.0015205880395683  0.6656088853269679  0.8736295252749500
  0.4431665196704060  0.1127293616735585  0.0461355595317272
  0.3307024897933957  0.0016765862762469  0.2118848859213216
  0.4276220219080216  0.1433403997823248  0.3686188105251631
  0.3020385380073591  0.0178353791016477  0.5320229340372435
  0.4428379295815077  0.1122962344946785  0.7027442002674249
  0.3343736448624099  0.9997918030213313  0.8741407837315691
  0.4456842584466898  0.4419648417638413  0.0488283259632567
  0.3355265131593512  0.3331273072384420  0.2301262984928698
  0.4563065015891823  0.4207203554788634  0.3818366597090161
  0.3517854191173058  0.3494800010956638  0.5343401332553128
  0.4440237974485015  0.4452857637602250  0.7098318430536139
  0.3329685292565685  0.3329580212730363  0.8754382772877563
  0.4440745930852898  0.7783541094244342  0.0433767764028445
  0.3339624787201103  0.6654084131882811  0.2122744791175819
  0.4426320129185584  0.7806374653120258  0.3738578723114330
  0.3504175417244895  0.6324982871795157  0.5307016023087314
  0.4420126925216650  0.7788260497260566  0.7021908522234455
  0.3330445250271197  0.6672443205742624  0.8758063134637339
  0.7774374044495431  0.1127293616735585  0.0461355595317272
  0.6669434551759039  0.9994464243628371  0.2090088803111527
  0.7623708641031612  0.1433403997823248  0.3686188105251631
  0.6655984232094951  0.0021364882956405  0.5350562916663932
  0.7781991217173214  0.1122962344946785  0.7027442002674249
  0.6658835395078029  0.0015662556990392  0.8745621143327185
  0.7769608472709919  0.4430003716824942  0.0466507105220515
  0.6646794773670095  0.3331273072384420  0.2301262984928698
  0.7603915644174961  0.4279449699086939  0.3686742142424251
  0.6320678775518260  0.3494800010956638  0.5343401332553128
  0.7792794480383805  0.4414835641897170  0.7028936926573337
  0.6674067472351837  0.3329580212730363  0.8754382772877563
  0.7779671553641094  0.7773990099431884  0.0412135021202786
  0.6663830767121084  0.6666831133719597  0.2086891545477414
  0.7776775189701652  0.7779782827310626  0.3719414620057790
  0.6674898858446880  0.6638840217553650  0.5373081815151934
  0.7775460217815251  0.7782412771083500  0.7057786005882747
  0.6662038962259871  0.6656088853269679  0.8736295252749500
 
  0.00000000E+00  0.00000000E+00  0.00000000E+00
  0.00000000E+00  0.00000000E+00  0.00000000E+00
  0.00000000E+00  0.00000000E+00  0.00000000E+00
  0.00000000E+00  0.00000000E+00  0.00000000E+00
  0.00000000E+00  0.00000000E+00  0.00000000E+00
  0.00000000E+00  0.00000000E+00  0.00000000E+00
  0.00000000E+00  0.00000000E+00  0.00000000E+00
  0.00000000E+00  0.00000000E+00  0.00000000E+00
  0.00000000E+00  0.00000000E+00  0.00000000E+00
  0.00000000E+00  0.00000000E+00  0.00000000E+00
  0.00000000E+00  0.00000000E+00  0.00000000E+00
  0.00000000E+00  0.00000000E+00  0.00000000E+00
  0.00000000E+00  0.00000000E+00  0.00000000E+00
  0.00000000E+00  0.00000000E+00  0.00000000E+00
  0.00000000E+00  0.00000000E+00  0.00000000E+00
  0.00000000E+00  0.00000000E+00  0.00000000E+00
  0.00000000E+00  0.00000000E+00  0.00000000E+00
  0.00000000E+00  0.00000000E+00  0.00000000E+00
  0.00000000E+00  0.00000000E+00  0.00000000E+00
  0.00000000E+00  0.00000000E+00  0.00000000E+00
  0.00000000E+00  0.00000000E+00  0.00000000E+00
  0.00000000E+00  0.00000000E+00  0.00000000E+00
  0.00000000E+00  0.00000000E+00  0.00000000E+00
  0.00000000E+00  0.00000000E+00  0.00000000E+00
  0.00000000E+00  0.00000000E+00  0.00000000E+00
  0.00000000E+00  0.00000000E+00  0.00000000E+00
  0.00000000E+00  0.00000000E+00  0.00000000E+00
  0.00000000E+00  0.00000000E+00  0.00000000E+00
  0.00000000E+00  0.00000000E+00  0.00000000E+00
  0.00000000E+00  0.00000000E+00  0.00000000E+00
  0.00000000E+00  0.00000000E+00  0.00000000E+00
  0.00000000E+00  0.00000000E+00  0.00000000E+00
  0.00000000E+00  0.00000000E+00  0.00000000E+00
  0.00000000E+00  0.00000000E+00  0.00000000E+00
  0.00000000E+00  0.00000000E+00  0.00000000E+00
  0.00000000E+00  0.00000000E+00  0.00000000E+00
  0.00000000E+00  0.00000000E+00  0.00000000E+00
  0.00000000E+00  0.00000000E+00  0.00000000E+00
  0.00000000E+00  0.00000000E+00  0.00000000E+00
  0.00000000E+00  0.00000000E+00  0.00000000E+00
  0.00000000E+00  0.00000000E+00  0.00000000E+00
  0.00000000E+00  0.00000000E+00  0.00000000E+00
  0.00000000E+00  0.00000000E+00  0.00000000E+00
  0.00000000E+00  0.00000000E+00  0.00000000E+00
  0.00000000E+00  0.00000000E+00  0.00000000E+00
  0.00000000E+00  0.00000000E+00  0.00000000E+00
  0.00000000E+00  0.00000000E+00  0.00000000E+00
  0.00000000E+00  0.00000000E+00  0.00000000E+00
  0.00000000E+00  0.00000000E+00  0.00000000E+00
  0.00000000E+00  0.00000000E+00  0.00000000E+00
  0.00000000E+00  0.00000000E+00  0.00000000E+00
  0.00000000E+00  0.00000000E+00  0.00000000E+00
  0.00000000E+00  0.00000000E+00  0.00000000E+00
  0.00000000E+00  0.00000000E+00  0.00000000E+00
  0.00000000E+00  0.00000000E+00  0.00000000E+00
  0.00000000E+00  0.00000000E+00  0.00000000E+00
  0.00000000E+00  0.00000000E+00  0.00000000E+00
  0.00000000E+00  0.00000000E+00  0.00000000E+00
  0.00000000E+00  0.00000000E+00  0.00000000E+00
  0.00000000E+00  0.00000000E+00  0.00000000E+00
  0.00000000E+00  0.00000000E+00  0.00000000E+00
  0.00000000E+00  0.00000000E+00  0.00000000E+00
  0.00000000E+00  0.00000000E+00  0.00000000E+00
  0.00000000E+00  0.00000000E+00  0.00000000E+00
  0.00000000E+00  0.00000000E+00  0.00000000E+00
  0.00000000E+00  0.00000000E+00  0.00000000E+00
  0.00000000E+00  0.00000000E+00  0.00000000E+00
  0.00000000E+00  0.00000000E+00  0.00000000E+00
  0.00000000E+00  0.00000000E+00  0.00000000E+00
  0.00000000E+00  0.00000000E+00  0.00000000E+00
  0.00000000E+00  0.00000000E+00  0.00000000E+00
  0.00000000E+00  0.00000000E+00  0.00000000E+00
  0.00000000E+00  0.00000000E+00  0.00000000E+00
  0.00000000E+00  0.00000000E+00  0.00000000E+00
  0.00000000E+00  0.00000000E+00  0.00000000E+00
  0.00000000E+00  0.00000000E+00  0.00000000E+00
  0.00000000E+00  0.00000000E+00  0.00000000E+00
  0.00000000E+00  0.00000000E+00  0.00000000E+00
  0.00000000E+00  0.00000000E+00  0.00000000E+00
  0.00000000E+00  0.00000000E+00  0.00000000E+00
  0.00000000E+00  0.00000000E+00  0.00000000E+00
  0.00000000E+00  0.00000000E+00  0.00000000E+00
  0.00000000E+00  0.00000000E+00  0.00000000E+00
  0.00000000E+00  0.00000000E+00  0.00000000E+00
  0.00000000E+00  0.00000000E+00  0.00000000E+00
  0.00000000E+00  0.00000000E+00  0.00000000E+00
  0.00000000E+00  0.00000000E+00  0.00000000E+00
  0.00000000E+00  0.00000000E+00  0.00000000E+00
  0.00000000E+00  0.00000000E+00  0.00000000E+00
  0.00000000E+00  0.00000000E+00  0.00000000E+00
  0.00000000E+00  0.00000000E+00  0.00000000E+00
  0.00000000E+00  0.00000000E+00  0.00000000E+00
  0.00000000E+00  0.00000000E+00  0.00000000E+00
  0.00000000E+00  0.00000000E+00  0.00000000E+00
  0.00000000E+00  0.00000000E+00  0.00000000E+00
  0.00000000E+00  0.00000000E+00  0.00000000E+00
  0.00000000E+00  0.00000000E+00  0.00000000E+00
  0.00000000E+00  0.00000000E+00  0.00000000E+00
  0.00000000E+00  0.00000000E+00  0.00000000E+00
  0.00000000E+00  0.00000000E+00  0.00000000E+00
  0.00000000E+00  0.00000000E+00  0.00000000E+00
  0.00000000E+00  0.00000000E+00  0.00000000E+00
  0.00000000E+00  0.00000000E+00  0.00000000E+00
  0.00000000E+00  0.00000000E+00  0.00000000E+00
  0.00000000E+00  0.00000000E+00  0.00000000E+00
  0.00000000E+00  0.00000000E+00  0.00000000E+00
  0.00000000E+00  0.00000000E+00  0.00000000E+00
  0.00000000E+00  0.00000000E+00  0.00000000E+00
