B Ga N                                  
   1.00000000000000     
     9.6179764862255421    0.0000000000000000    0.0000000000000000
     4.8089882431127711    8.3294128954717177    0.0000000000000000
     0.0000000000000000    0.0000000000000000   15.6689653236455122
   B    Ga   N 
     1    53    54
Direct
  0.4444444467389488  0.4444444651793233  0.4992769232467822
  0.9997650867786874  0.9997650867786874  0.0000637891626951
  0.1111110764557708  0.1111111318459876  0.1668267083815138
  0.0000391682112806  0.0000391682112806  0.3338106584475682
  0.1111110764557708  0.1111111318459876  0.4996262401612270
  0.0001057113227745  0.0001057113227745  0.6657618809223109
  0.1111110764557708  0.1111111318459876  0.8331156903989765
  0.9997650684764281  0.3338031597759539  0.0000637891626951
  0.1121605849237284  0.4440931530912877  0.1678427657160171
  0.0000391499090213  0.3332549969107745  0.3338106584475682
  0.1161721828749336  0.4459395641461228  0.4997327035037671
  0.0001056930205152  0.3331219106877867  0.6657618809223109
  0.1121160746167931  0.4438913921592729  0.8321980508428126
  0.0007654890788729  0.6662839312783575  0.0000130551744562
  0.1121605666214691  0.7770796387372556  0.1678427657160171
  0.9997836171501930  0.6667748672427010  0.3333534664153035
  0.1161721645726743  0.7712216297312153  0.4997327035037671
  0.0000496769331946  0.6666418373511931  0.6662989209057670
  0.1121160563145338  0.7773259099762058  0.8321980508428126
  0.3338031601212776  0.9997650867786874  0.0000637891626951
  0.4440930980463946  0.1121606037094267  0.1678427657160171
  0.3332549972560983  0.0000391682112806  0.3338106584475682
  0.4459395091012297  0.1161722016606319  0.4997327035037671
  0.3331219110331105  0.0001057113227745  0.6657618809223109
  0.4438913371143798  0.1121160934024914  0.8321980508428126
  0.3331579658413943  0.3331579837983298  0.0002000610727251
  0.4444444467389488  0.4444444651793233  0.1671350882089442
  0.3355237160255129  0.3355237339824484  0.3382004757438324
  0.3365352463762932  0.3365352643332287  0.6627920518886299
  0.4444444467389488  0.4444444651793233  0.8340986934077463
  0.3331580024459129  0.6670173657366689  0.0002000610727251
  0.4440931163486539  0.7770796387372556  0.1678427657160171
  0.3355237526300314  0.6622858653684318  0.3382004757438324
  0.4459395274034890  0.7712216297312153  0.4997327035037671
  0.3365352829808117  0.6602628046668855  0.6627920518886299
  0.4438913554166390  0.7773259099762058  0.8321980508428126
  0.6662839319690121  0.0007654707766136  0.0000130551744562
  0.7770795840376863  0.1121606037094267  0.1678427657160171
  0.6667748679333556  0.9997835988479338  0.3333534664153035
  0.7712215750316460  0.1161722016606319  0.4997327035037671
  0.6666418380418477  0.0000496586309353  0.6662989209057670
  0.7773258552766364  0.1121160934024914  0.8321980508428126
  0.6670173481250643  0.3331579837983298  0.0002000610727251
  0.7770796196062264  0.4440931530912877  0.1678427657160171
  0.6622858477568272  0.3355237339824484  0.3382004757438324
  0.7712216106001861  0.4459395641461228  0.4997327035037671
  0.6602627870552809  0.3365352643332287  0.6627920518886299
  0.7773258908451766  0.4438913921592729  0.8321980508428126
  0.6662839492352930  0.6662839312783575  0.0000130551744562
  0.7777777610793706  0.7777777985126590  0.1664473592147075
  0.6667748851996365  0.6667748672427010  0.3333534664153035
  0.7777777610793706  0.7777777985126590  0.4997054140274031
  0.6666418553081286  0.6666418373511931  0.6662989209057670
  0.7777777610793706  0.7777777985126590  0.8334497840600079
  0.1111110764557708  0.1111111318459876  0.0408516761796207
  0.0000033021433055  0.0000033021433055  0.2081208019102121
  0.1111110764557708  0.1111111318459876  0.3744003312286637
  0.9995442880094458  0.9995442880094458  0.5401465430005814
  0.1111110764557708  0.1111111318459876  0.7074319667084765
  0.9996708623153339  0.9996708623153339  0.8738738285529521
  0.1114748286821481  0.4442331144454315  0.0418481501020622
  0.0000032838410462  0.3333267290467319  0.2081208019102121
  0.1109886906659128  0.4447118612989840  0.3746539175536654
  0.9995442697071866  0.3342447573144511  0.5401465430005814
  0.1134785327232635  0.4431890582280289  0.7057466801424255
  0.9996708440130817  0.3339916087026609  0.8738738285529521
  0.1114748103798888  0.7776254336246851  0.0418481501020622
  0.9997971226263331  0.6667681145046274  0.2079337873229079
  0.1109886723636535  0.7776328247873749  0.3746539175536654
  0.9994433476709332  0.6669450019823273  0.5411460505391616
  0.1134785144210042  0.7766657858009864  0.7057466801424255
  0.0007801404134611  0.6662766056110669  0.8738591675757021
  0.4442330594005384  0.1114748474678464  0.0418481501020622
  0.3333267293920557  0.0000033021433055  0.2081208019102121
  0.4447118062540909  0.1109887094516111  0.3746539175536654
  0.3342447576597749  0.9995442880094458  0.5401465430005814
  0.4431890031831358  0.1134785515089618  0.7057466801424255
  0.3339916090479846  0.9996708623153339  0.8738738285529521
  0.4444444467389488  0.4444444651793233  0.0415207570989082
  0.3344559993260887  0.3344560172830242  0.2111041249026115
  0.4444444467389488  0.4444444651793233  0.3930521331874033
  0.3494053450189227  0.3494053629758582  0.5349510398258985
  0.4444444467389488  0.4444444651793233  0.7097890456833227
  0.3332186627269493  0.3332186806838848  0.8746871846506750
  0.4442330777027976  0.7776254336246851  0.0418481501020622
  0.3344560359306072  0.6644212987672873  0.2111041249026115
  0.4447118245563502  0.7776328247873749  0.3746539175536654
  0.3494053816234413  0.6345226073816193  0.5349510398258985
  0.4431890214853951  0.7766657858009864  0.7057466801424255
  0.3332186993314679  0.6668959719655589  0.8746871846506750
  0.7776253789251157  0.1114748474678464  0.0418481501020622
  0.6667681151952820  0.9997971043240739  0.2079337873229079
  0.7776327700878056  0.1109887094516111  0.3746539175536654
  0.6669450026729820  0.9994433293686740  0.5411460505391616
  0.7766657311014171  0.1134785515089618  0.7057466801424255
  0.6662766063017216  0.0007801221112018  0.8738591675757021
  0.7776254144936559  0.4442331144454315  0.0418481501020622
  0.6644212811556827  0.3344560172830242  0.2111041249026115
  0.7776328056563457  0.4447118612989840  0.3746539175536654
  0.6345225897700146  0.3494053629758582  0.5349510398258985
  0.7766657666699572  0.4431890582280289  0.7057466801424255
  0.6668959543539543  0.3332186806838848  0.8746871846506750
  0.7777777610793706  0.7777777985126590  0.0406150824778493
  0.6667681324615629  0.6667681145046274  0.2079337873229079
  0.7777777610793706  0.7777777985126590  0.3743550549092802
  0.6669450199392628  0.6669450019823273  0.5411460505391616
  0.7777777610793706  0.7777777985126590  0.7077949298788937
  0.6662766235680024  0.6662766056110669  0.8738591675757021
 
  0.00000000E+00  0.00000000E+00  0.00000000E+00
  0.00000000E+00  0.00000000E+00  0.00000000E+00
  0.00000000E+00  0.00000000E+00  0.00000000E+00
  0.00000000E+00  0.00000000E+00  0.00000000E+00
  0.00000000E+00  0.00000000E+00  0.00000000E+00
  0.00000000E+00  0.00000000E+00  0.00000000E+00
  0.00000000E+00  0.00000000E+00  0.00000000E+00
  0.00000000E+00  0.00000000E+00  0.00000000E+00
  0.00000000E+00  0.00000000E+00  0.00000000E+00
  0.00000000E+00  0.00000000E+00  0.00000000E+00
  0.00000000E+00  0.00000000E+00  0.00000000E+00
  0.00000000E+00  0.00000000E+00  0.00000000E+00
  0.00000000E+00  0.00000000E+00  0.00000000E+00
  0.00000000E+00  0.00000000E+00  0.00000000E+00
  0.00000000E+00  0.00000000E+00  0.00000000E+00
  0.00000000E+00  0.00000000E+00  0.00000000E+00
  0.00000000E+00  0.00000000E+00  0.00000000E+00
  0.00000000E+00  0.00000000E+00  0.00000000E+00
  0.00000000E+00  0.00000000E+00  0.00000000E+00
  0.00000000E+00  0.00000000E+00  0.00000000E+00
  0.00000000E+00  0.00000000E+00  0.00000000E+00
  0.00000000E+00  0.00000000E+00  0.00000000E+00
  0.00000000E+00  0.00000000E+00  0.00000000E+00
  0.00000000E+00  0.00000000E+00  0.00000000E+00
  0.00000000E+00  0.00000000E+00  0.00000000E+00
  0.00000000E+00  0.00000000E+00  0.00000000E+00
  0.00000000E+00  0.00000000E+00  0.00000000E+00
  0.00000000E+00  0.00000000E+00  0.00000000E+00
  0.00000000E+00  0.00000000E+00  0.00000000E+00
  0.00000000E+00  0.00000000E+00  0.00000000E+00
  0.00000000E+00  0.00000000E+00  0.00000000E+00
  0.00000000E+00  0.00000000E+00  0.00000000E+00
  0.00000000E+00  0.00000000E+00  0.00000000E+00
  0.00000000E+00  0.00000000E+00  0.00000000E+00
  0.00000000E+00  0.00000000E+00  0.00000000E+00
  0.00000000E+00  0.00000000E+00  0.00000000E+00
  0.00000000E+00  0.00000000E+00  0.00000000E+00
  0.00000000E+00  0.00000000E+00  0.00000000E+00
  0.00000000E+00  0.00000000E+00  0.00000000E+00
  0.00000000E+00  0.00000000E+00  0.00000000E+00
  0.00000000E+00  0.00000000E+00  0.00000000E+00
  0.00000000E+00  0.00000000E+00  0.00000000E+00
  0.00000000E+00  0.00000000E+00  0.00000000E+00
  0.00000000E+00  0.00000000E+00  0.00000000E+00
  0.00000000E+00  0.00000000E+00  0.00000000E+00
  0.00000000E+00  0.00000000E+00  0.00000000E+00
  0.00000000E+00  0.00000000E+00  0.00000000E+00
  0.00000000E+00  0.00000000E+00  0.00000000E+00
  0.00000000E+00  0.00000000E+00  0.00000000E+00
  0.00000000E+00  0.00000000E+00  0.00000000E+00
  0.00000000E+00  0.00000000E+00  0.00000000E+00
  0.00000000E+00  0.00000000E+00  0.00000000E+00
  0.00000000E+00  0.00000000E+00  0.00000000E+00
  0.00000000E+00  0.00000000E+00  0.00000000E+00
  0.00000000E+00  0.00000000E+00  0.00000000E+00
  0.00000000E+00  0.00000000E+00  0.00000000E+00
  0.00000000E+00  0.00000000E+00  0.00000000E+00
  0.00000000E+00  0.00000000E+00  0.00000000E+00
  0.00000000E+00  0.00000000E+00  0.00000000E+00
  0.00000000E+00  0.00000000E+00  0.00000000E+00
  0.00000000E+00  0.00000000E+00  0.00000000E+00
  0.00000000E+00  0.00000000E+00  0.00000000E+00
  0.00000000E+00  0.00000000E+00  0.00000000E+00
  0.00000000E+00  0.00000000E+00  0.00000000E+00
  0.00000000E+00  0.00000000E+00  0.00000000E+00
  0.00000000E+00  0.00000000E+00  0.00000000E+00
  0.00000000E+00  0.00000000E+00  0.00000000E+00
  0.00000000E+00  0.00000000E+00  0.00000000E+00
  0.00000000E+00  0.00000000E+00  0.00000000E+00
  0.00000000E+00  0.00000000E+00  0.00000000E+00
  0.00000000E+00  0.00000000E+00  0.00000000E+00
  0.00000000E+00  0.00000000E+00  0.00000000E+00
  0.00000000E+00  0.00000000E+00  0.00000000E+00
  0.00000000E+00  0.00000000E+00  0.00000000E+00
  0.00000000E+00  0.00000000E+00  0.00000000E+00
  0.00000000E+00  0.00000000E+00  0.00000000E+00
  0.00000000E+00  0.00000000E+00  0.00000000E+00
  0.00000000E+00  0.00000000E+00  0.00000000E+00
  0.00000000E+00  0.00000000E+00  0.00000000E+00
  0.00000000E+00  0.00000000E+00  0.00000000E+00
  0.00000000E+00  0.00000000E+00  0.00000000E+00
  0.00000000E+00  0.00000000E+00  0.00000000E+00
  0.00000000E+00  0.00000000E+00  0.00000000E+00
  0.00000000E+00  0.00000000E+00  0.00000000E+00
  0.00000000E+00  0.00000000E+00  0.00000000E+00
  0.00000000E+00  0.00000000E+00  0.00000000E+00
  0.00000000E+00  0.00000000E+00  0.00000000E+00
  0.00000000E+00  0.00000000E+00  0.00000000E+00
  0.00000000E+00  0.00000000E+00  0.00000000E+00
  0.00000000E+00  0.00000000E+00  0.00000000E+00
  0.00000000E+00  0.00000000E+00  0.00000000E+00
  0.00000000E+00  0.00000000E+00  0.00000000E+00
  0.00000000E+00  0.00000000E+00  0.00000000E+00
  0.00000000E+00  0.00000000E+00  0.00000000E+00
  0.00000000E+00  0.00000000E+00  0.00000000E+00
  0.00000000E+00  0.00000000E+00  0.00000000E+00
  0.00000000E+00  0.00000000E+00  0.00000000E+00
  0.00000000E+00  0.00000000E+00  0.00000000E+00
  0.00000000E+00  0.00000000E+00  0.00000000E+00
  0.00000000E+00  0.00000000E+00  0.00000000E+00
  0.00000000E+00  0.00000000E+00  0.00000000E+00
  0.00000000E+00  0.00000000E+00  0.00000000E+00
  0.00000000E+00  0.00000000E+00  0.00000000E+00
  0.00000000E+00  0.00000000E+00  0.00000000E+00
  0.00000000E+00  0.00000000E+00  0.00000000E+00
  0.00000000E+00  0.00000000E+00  0.00000000E+00
  0.00000000E+00  0.00000000E+00  0.00000000E+00
  0.00000000E+00  0.00000000E+00  0.00000000E+00
