B Ga N                                  
   1.00000000000000     
     9.5621568844120297    0.0000000000000000    0.0000000000000000
     4.7810784422060149    8.2810716969013711    0.0000000000000000
     0.0000000000000000    0.0000000000000000   15.5574741444969646
   B    Ga   N 
     3    51    54
Direct
  0.6734008617010616  0.3198649080413247  0.3282213352479602
  0.3400675280224021  0.3198649080413247  0.3282213352479602
  0.0067341943437427  0.3198649080413247  0.3282213352479602
  0.4467351650868707  0.4398630284834795  0.4917000483247591
  0.9997537814648609  0.0004924370702781  0.0018662256787181
  0.1103074161807243  0.1127184523960878  0.1703660177509647
  0.9937464554078517  0.0125070891842967  0.3321984668248845
  0.1069765708482677  0.1193801430609938  0.4950923907498961
  0.9993715017327602  0.0012569965344795  0.6638425190487638
  0.1108759469564333  0.1115813908446555  0.8333728788461272
  0.9997004218310153  0.3339324530667795  0.0034536261551636
  0.1135114960411272  0.4396436992176405  0.1778499357258383
  0.1134018314082113  0.4398630284834795  0.4917000483247591
  0.9993097241707574  0.3347138483873024  0.6648025318298849
  0.1111044452228001  0.4444578008543019  0.8338645532435720
  0.0012054421447445  0.6642558189817009  0.0030464034850866
  0.1117562161822434  0.7764875556642252  0.1680738976482843
  0.0042812865142494  0.6581041302426840  0.3336674183185337
  0.1107865995972475  0.7784267888342171  0.4978039253915938
  0.0007548250932032  0.6651570530847764  0.6639650957163639
  0.1112843613131034  0.7774312654025195  0.8333411312004557
  0.3330871151435204  0.0004924370702781  0.0018662256787181
  0.4436407498593837  0.1127184523960878  0.1703660177509647
  0.3270797890865111  0.0125070891842967  0.3321984668248845
  0.4403099045269272  0.1193801430609938  0.4950923907498961
  0.3327048354114197  0.0012569965344795  0.6638425190487638
  0.4442092806350928  0.1115813908446555  0.8333728788461272
  0.3330337555096747  0.3339324530667795  0.0034536261551636
  0.4468448297197867  0.4396436992176405  0.1778499357258383
  0.3326430578494168  0.3347138483873024  0.6648025318298849
  0.4444377789014595  0.4444578008543019  0.8338645532435720
  0.3345387758234040  0.6642558189817009  0.0030464034850866
  0.4450895498609029  0.7764875556642252  0.1680738976482843
  0.3376146201929089  0.6581041302426840  0.3336674183185337
  0.4441199332759140  0.7784267888342171  0.4978039253915938
  0.3340881587718627  0.6651570530847764  0.6639650957163639
  0.4446176949917628  0.7774312654025195  0.8333411312004557
  0.6664204488221799  0.0004924370702781  0.0018662256787181
  0.7769740835380432  0.1127184523960878  0.1703660177509647
  0.6604131227651706  0.0125070891842967  0.3321984668248845
  0.7736432382055867  0.1193801430609938  0.4950923907498961
  0.6660381690900792  0.0012569965344795  0.6638425190487638
  0.7775426143137523  0.1115813908446555  0.8333728788461272
  0.6663670891883342  0.3339324530667795  0.0034536261551636
  0.7801781623624677  0.4396436992176405  0.1778499357258383
  0.7800684977295518  0.4398630284834795  0.4917000483247591
  0.6659763915280763  0.3347138483873024  0.6648025318298849
  0.7777711115441406  0.4444578008543019  0.8338645532435720
  0.6678721084660850  0.6642558189817009  0.0030464034850866
  0.7784228825035839  0.7764875556642252  0.1680738976482843
  0.6709479528355899  0.6581041302426840  0.3336674183185337
  0.7774532659185951  0.7784267888342171  0.4978039253915938
  0.6674214914145438  0.6651570530847764  0.6639650957163639
  0.7779510276344439  0.7774312654025195  0.8333411312004557
  0.1104932957751288  0.1123466932072787  0.0444232329777066
  0.0002928824338113  0.9994142351323774  0.2077543318156785
  0.0950214597005257  0.1432903653564850  0.3669312501489301
  0.9980966576787864  0.0038066846424272  0.5360653918437208
  0.1108172975835018  0.1116986895905256  0.7065996060621629
  0.9998869647649613  0.0002260704700845  0.8754021742783635
  0.1124918370296228  0.4416830172406492  0.0492587028347060
  0.0020305341239322  0.3292722284809528  0.2266088154152541
  0.1238381868031766  0.4189903176935488  0.3639473371914974
  0.9981975670454162  0.3369381626379919  0.5393589040517597
  0.1111481656566298  0.4443703599866424  0.7078048570876945
  0.9997695046362836  0.3337942874562501  0.8768487013697950
  0.1112326419872076  0.7775347040542968  0.0422872037111759
  0.0003252798213538  0.6660161436284824  0.2086436394423572
  0.1089166900158389  0.7821666079970484  0.3724000869169757
  0.0013468720290888  0.6639729592130124  0.5372162429498033
  0.1109196668383490  0.7781606543520141  0.7060196798775991
  0.0003116852675831  0.6660433327360167  0.8760938240600566
  0.4438266294537883  0.1123466932072787  0.0444232329777066
  0.3336262161124708  0.9994142351323774  0.2077543318156785
  0.4283547933791851  0.1432903653564850  0.3669312501489301
  0.3314299913574459  0.0038066846424272  0.5360653918437208
  0.4441506312621613  0.1116986895905256  0.7065996060621629
  0.3332202984436208  0.0002260704700845  0.8754021742783635
  0.4458251707082823  0.4416830172406492  0.0492587028347060
  0.3353638678025916  0.3292722284809528  0.2266088154152541
  0.4571715204818361  0.4189903176935488  0.3639473371914974
  0.3315309007240757  0.3369381626379919  0.5393589040517597
  0.4444814993352892  0.4443703599866424  0.7078048570876945
  0.3331028383149430  0.3337942874562501  0.8768487013697950
  0.4445659756658671  0.7775347040542968  0.0422872037111759
  0.3336586135000132  0.6660161436284824  0.2086436394423572
  0.4422500236944984  0.7821666079970484  0.3724000869169757
  0.3346802057077483  0.6639729592130124  0.5372162429498033
  0.4442530005170084  0.7781606543520141  0.7060196798775991
  0.3336450189462425  0.6660433327360167  0.8760938240600566
  0.7771599631324477  0.1123466932072787  0.0444232329777066
  0.6669595497911303  0.9994142351323774  0.2077543318156785
  0.7616881270578446  0.1432903653564850  0.3669312501489301
  0.6647633250361054  0.0038066846424272  0.5360653918437208
  0.7774839649408207  0.1116986895905256  0.7065996060621629
  0.6665536321222802  0.0002260704700845  0.8754021742783635
  0.7791585033509634  0.4416830172406492  0.0492587028347060
  0.6686972014812511  0.3292722284809528  0.2266088154152541
  0.7905048531245171  0.4189903176935488  0.3639473371914974
  0.6648642344027351  0.3369381626379919  0.5393589040517597
  0.7778148319779703  0.4443703599866424  0.7078048570876945
  0.6664361719936025  0.3337942874562501  0.8768487013697950
  0.7778993083085481  0.7775347040542968  0.0422872037111759
  0.6669919461426943  0.6660161436284824  0.2086436394423572
  0.7755833563371795  0.7821666079970484  0.3724000869169757
  0.6680135383504293  0.6639729592130124  0.5372162429498033
  0.7775863331596895  0.7781606543520141  0.7060196798775991
  0.6669783515889236  0.6660433327360167  0.8760938240600566
 
  0.00000000E+00  0.00000000E+00  0.00000000E+00
  0.00000000E+00  0.00000000E+00  0.00000000E+00
  0.00000000E+00  0.00000000E+00  0.00000000E+00
  0.00000000E+00  0.00000000E+00  0.00000000E+00
  0.00000000E+00  0.00000000E+00  0.00000000E+00
  0.00000000E+00  0.00000000E+00  0.00000000E+00
  0.00000000E+00  0.00000000E+00  0.00000000E+00
  0.00000000E+00  0.00000000E+00  0.00000000E+00
  0.00000000E+00  0.00000000E+00  0.00000000E+00
  0.00000000E+00  0.00000000E+00  0.00000000E+00
  0.00000000E+00  0.00000000E+00  0.00000000E+00
  0.00000000E+00  0.00000000E+00  0.00000000E+00
  0.00000000E+00  0.00000000E+00  0.00000000E+00
  0.00000000E+00  0.00000000E+00  0.00000000E+00
  0.00000000E+00  0.00000000E+00  0.00000000E+00
  0.00000000E+00  0.00000000E+00  0.00000000E+00
  0.00000000E+00  0.00000000E+00  0.00000000E+00
  0.00000000E+00  0.00000000E+00  0.00000000E+00
  0.00000000E+00  0.00000000E+00  0.00000000E+00
  0.00000000E+00  0.00000000E+00  0.00000000E+00
  0.00000000E+00  0.00000000E+00  0.00000000E+00
  0.00000000E+00  0.00000000E+00  0.00000000E+00
  0.00000000E+00  0.00000000E+00  0.00000000E+00
  0.00000000E+00  0.00000000E+00  0.00000000E+00
  0.00000000E+00  0.00000000E+00  0.00000000E+00
  0.00000000E+00  0.00000000E+00  0.00000000E+00
  0.00000000E+00  0.00000000E+00  0.00000000E+00
  0.00000000E+00  0.00000000E+00  0.00000000E+00
  0.00000000E+00  0.00000000E+00  0.00000000E+00
  0.00000000E+00  0.00000000E+00  0.00000000E+00
  0.00000000E+00  0.00000000E+00  0.00000000E+00
  0.00000000E+00  0.00000000E+00  0.00000000E+00
  0.00000000E+00  0.00000000E+00  0.00000000E+00
  0.00000000E+00  0.00000000E+00  0.00000000E+00
  0.00000000E+00  0.00000000E+00  0.00000000E+00
  0.00000000E+00  0.00000000E+00  0.00000000E+00
  0.00000000E+00  0.00000000E+00  0.00000000E+00
  0.00000000E+00  0.00000000E+00  0.00000000E+00
  0.00000000E+00  0.00000000E+00  0.00000000E+00
  0.00000000E+00  0.00000000E+00  0.00000000E+00
  0.00000000E+00  0.00000000E+00  0.00000000E+00
  0.00000000E+00  0.00000000E+00  0.00000000E+00
  0.00000000E+00  0.00000000E+00  0.00000000E+00
  0.00000000E+00  0.00000000E+00  0.00000000E+00
  0.00000000E+00  0.00000000E+00  0.00000000E+00
  0.00000000E+00  0.00000000E+00  0.00000000E+00
  0.00000000E+00  0.00000000E+00  0.00000000E+00
  0.00000000E+00  0.00000000E+00  0.00000000E+00
  0.00000000E+00  0.00000000E+00  0.00000000E+00
  0.00000000E+00  0.00000000E+00  0.00000000E+00
  0.00000000E+00  0.00000000E+00  0.00000000E+00
  0.00000000E+00  0.00000000E+00  0.00000000E+00
  0.00000000E+00  0.00000000E+00  0.00000000E+00
  0.00000000E+00  0.00000000E+00  0.00000000E+00
  0.00000000E+00  0.00000000E+00  0.00000000E+00
  0.00000000E+00  0.00000000E+00  0.00000000E+00
  0.00000000E+00  0.00000000E+00  0.00000000E+00
  0.00000000E+00  0.00000000E+00  0.00000000E+00
  0.00000000E+00  0.00000000E+00  0.00000000E+00
  0.00000000E+00  0.00000000E+00  0.00000000E+00
  0.00000000E+00  0.00000000E+00  0.00000000E+00
  0.00000000E+00  0.00000000E+00  0.00000000E+00
  0.00000000E+00  0.00000000E+00  0.00000000E+00
  0.00000000E+00  0.00000000E+00  0.00000000E+00
  0.00000000E+00  0.00000000E+00  0.00000000E+00
  0.00000000E+00  0.00000000E+00  0.00000000E+00
  0.00000000E+00  0.00000000E+00  0.00000000E+00
  0.00000000E+00  0.00000000E+00  0.00000000E+00
  0.00000000E+00  0.00000000E+00  0.00000000E+00
  0.00000000E+00  0.00000000E+00  0.00000000E+00
  0.00000000E+00  0.00000000E+00  0.00000000E+00
  0.00000000E+00  0.00000000E+00  0.00000000E+00
  0.00000000E+00  0.00000000E+00  0.00000000E+00
  0.00000000E+00  0.00000000E+00  0.00000000E+00
  0.00000000E+00  0.00000000E+00  0.00000000E+00
  0.00000000E+00  0.00000000E+00  0.00000000E+00
  0.00000000E+00  0.00000000E+00  0.00000000E+00
  0.00000000E+00  0.00000000E+00  0.00000000E+00
  0.00000000E+00  0.00000000E+00  0.00000000E+00
  0.00000000E+00  0.00000000E+00  0.00000000E+00
  0.00000000E+00  0.00000000E+00  0.00000000E+00
  0.00000000E+00  0.00000000E+00  0.00000000E+00
  0.00000000E+00  0.00000000E+00  0.00000000E+00
  0.00000000E+00  0.00000000E+00  0.00000000E+00
  0.00000000E+00  0.00000000E+00  0.00000000E+00
  0.00000000E+00  0.00000000E+00  0.00000000E+00
  0.00000000E+00  0.00000000E+00  0.00000000E+00
  0.00000000E+00  0.00000000E+00  0.00000000E+00
  0.00000000E+00  0.00000000E+00  0.00000000E+00
  0.00000000E+00  0.00000000E+00  0.00000000E+00
  0.00000000E+00  0.00000000E+00  0.00000000E+00
  0.00000000E+00  0.00000000E+00  0.00000000E+00
  0.00000000E+00  0.00000000E+00  0.00000000E+00
  0.00000000E+00  0.00000000E+00  0.00000000E+00
  0.00000000E+00  0.00000000E+00  0.00000000E+00
  0.00000000E+00  0.00000000E+00  0.00000000E+00
  0.00000000E+00  0.00000000E+00  0.00000000E+00
  0.00000000E+00  0.00000000E+00  0.00000000E+00
  0.00000000E+00  0.00000000E+00  0.00000000E+00
  0.00000000E+00  0.00000000E+00  0.00000000E+00
  0.00000000E+00  0.00000000E+00  0.00000000E+00
  0.00000000E+00  0.00000000E+00  0.00000000E+00
  0.00000000E+00  0.00000000E+00  0.00000000E+00
  0.00000000E+00  0.00000000E+00  0.00000000E+00
  0.00000000E+00  0.00000000E+00  0.00000000E+00
  0.00000000E+00  0.00000000E+00  0.00000000E+00
  0.00000000E+00  0.00000000E+00  0.00000000E+00
  0.00000000E+00  0.00000000E+00  0.00000000E+00
