B Ga N                                  
   1.00000000000000     
     9.5814968525639248    0.0000000000000000    0.0000000000000000
     4.7907484262819624    8.2978206024901002    0.0000000000000000
     0.0000000000000000    0.0000000000000000   15.6123359129215284
   B    Ga   N 
     2    52    54
Direct
  0.3333634800009122  0.3333634979578477  0.3328858631525904
  0.7777475964548586  0.7777476338881470  0.8328858793625074
  0.0000635610749953  0.0000635610749953  0.9992913152158280
  0.1109237935686451  0.1109238489588620  0.1668930289460988
  0.9995329665690349  0.9995329665690349  0.3329675016307334
  0.1110475153807755  0.1110475707709924  0.4992912983702311
  0.0001872828871257  0.0001872828871257  0.6668930457916957
  0.1115781098867359  0.1115781652769527  0.8329675178406504
  0.0006569913895120  0.3335858885530030  0.0009530864335900
  0.1151406831384847  0.4431613807052912  0.1703778373536338
  0.0062970781491742  0.3324630490813476  0.3330199345966989
  0.1167425078340969  0.4423140286147103  0.4972765473663756
  0.0005561619421286  0.3337869371526310  0.6653641428415540
  0.1041467919823305  0.4498305138057930  0.8333197886617612
  0.9943686235284517  0.6687971032312774  0.9972765642119725
  0.1105549145136422  0.7773241946933638  0.1653641259959571
  0.0069643393802181  0.6612806180402018  0.3333197724518442
  0.1104540850662588  0.7775252432929918  0.5009530695879931
  0.9959704482240639  0.6679497511406964  0.6703778541992307
  0.1048139983065965  0.7786480827646471  0.8330199508066158
  0.3335858888983267  0.0006570096917713  0.0009530864335900
  0.4431613256603981  0.1151407019241830  0.1703778373536338
  0.3324630494266714  0.0062970964514335  0.3330199345966989
  0.4423139735698172  0.1167425266197952  0.4972765473663756
  0.3337869374979547  0.0005561802443879  0.6653641428415540
  0.4498304587608928  0.1041468107680288  0.8333197886617612
  0.3333860720261370  0.3333860899830725  0.9996746278132349
  0.4422749322712605  0.4422749507116350  0.1713418347002502
  0.4413252830384309  0.4413253014788054  0.4962093183442065
  0.3333669172998839  0.3333669352568194  0.6679959440392622
  0.4446222386145706  0.4446222570549452  0.8331127872345334
  0.3338806262911689  0.6652561114875368  0.0003697475893105
  0.4455741063882286  0.7771269780765735  0.1658645888501837
  0.3315734587750327  0.6620238551845432  0.3331021161286429
  0.4458549836158170  0.7772305242024089  0.5003697307437136
  0.3339841724170043  0.6655369887151252  0.6658646056957807
  0.4490872399188106  0.7795376917185450  0.8331021323385599
  0.6687971039219320  0.9943686052261924  0.9972765642119725
  0.7773241399937945  0.1105549516015998  0.1653641259959571
  0.6612806187308564  0.0069643210779589  0.3333197724518442
  0.7775251885934225  0.1104541221542163  0.5009530695879931
  0.6679497518313511  0.9959704299218046  0.6703778541992307
  0.7786480280650778  0.1048140353945541  0.8330199508066158
  0.6652560938759322  0.3338806076435858  0.0003697475893105
  0.7771269589455443  0.4455741431308624  0.1658645888501837
  0.6620238375729386  0.3315734401274497  0.3331021161286429
  0.7772305050713797  0.4458550203584508  0.5003697307437136
  0.6655369711035206  0.3339841537694213  0.6658646056957807
  0.7795376725875158  0.4490872766614444  0.8331021323385599
  0.6697858483241177  0.6697858303671822  0.9962093351898034
  0.7777441591558869  0.7777441965891754  0.1679959271936653
  0.6664888927479780  0.6664888747910425  0.3331127710246164
  0.7777250044296338  0.7777250418629222  0.4996746109676380
  0.6688361990912881  0.6688361811343526  0.6713418515458471
  0.1109146485708123  0.1109147039610292  0.0414089188439846
  0.9995175661475031  0.9995175661475031  0.2070616554334634
  0.1107452994013869  0.1107453547916037  0.3739165061363607
  0.0001964278849584  0.0001964278849584  0.5414089356895815
  0.1115935103082677  0.1115935656984846  0.7070616722790604
  0.0003657770543839  0.0003657770543839  0.8739165223462777
  0.1120595856777129  0.4456498209398774  0.0424390989452235
  0.9997170675547764  0.3337980246850378  0.2073637858733548
  0.1431108449082998  0.4286140823750699  0.3688475016014863
  0.0012470408894458  0.3343441529148592  0.5391608461332353
  0.1107600320040660  0.4443889528406402  0.7082493886740764
  0.0004343607365271  0.3330136067070271  0.8753221667513458
  0.1098640355663250  0.7767669789311356  0.0391608292876384
  0.0003510993584825  0.6667221790053475  0.2082493718284795
  0.1106767157192436  0.7780975251389677  0.3753221505414288
  0.9990515456848357  0.6654613109061103  0.5424391157908204
  0.1113940089009944  0.7773131071609569  0.7073638027189517
  0.9680002864542487  0.6824970494709177  0.8688475178114032
  0.4456497658949843  0.1120596044634112  0.0424390989452235
  0.3337980250303616  0.9997170858570357  0.2073637858733548
  0.4286140273301768  0.1431108636939982  0.3688475016014863
  0.3343441532601830  0.0012470591917051  0.5391608461332353
  0.4443888977957471  0.1107600507897644  0.7082493886740764
  0.3330136070523508  0.0004343790387864  0.8753221667513458
  0.4432967821679767  0.4432968006083513  0.0442144867337646
  0.3331151069843514  0.3331151249412869  0.2258063998403870
  0.4284026691180145  0.4284026875583891  0.3680309956487022
  0.3333819443359900  0.3333819622929255  0.5434728547684244
  0.4445758604354566  0.4445758788758312  0.7079333127162855
  0.3328764240521593  0.3328764420090948  0.8739198547095626
  0.4468834114703171  0.7764082466699662  0.0394013549960377
  0.3327019909849511  0.6674960530025231  0.2074039998253738
  0.4438001748679667  0.7780521405937080  0.3742397022575545
  0.3347029038236116  0.6642276836330367  0.5394013718416346
  0.4436150421008307  0.7784091595086267  0.7074040166709707
  0.3330590098998698  0.6673109202353871  0.8742397184674715
  0.7767669242315662  0.1098640726542826  0.0391608292876384
  0.6667221796960021  0.0003510810562233  0.2082493718284795
  0.7780974704393984  0.1106767528072012  0.3753221505414288
  0.6654613115967649  0.9990515273825764  0.5424391157908204
  0.7773130524613876  0.1113940459889520  0.7073638027189517
  0.6824970501615724  0.9680002681519895  0.8688475178114032
  0.7764082275389370  0.4468834482129509  0.0394013549960377
  0.6674960353909185  0.3327019723373681  0.2074039998253738
  0.7780521214626788  0.4438002116106006  0.3742397022575545
  0.6642276660214321  0.3347028851760285  0.5394013718416346
  0.7784091403775975  0.4436150788434645  0.7074040166709707
  0.6673109026237825  0.3330589912522868  0.8742397184674715
  0.7777291321197808  0.7777291695530693  0.0434728379228275
  0.6665352709270920  0.6665352529701565  0.2079332958706885
  0.7782346524036114  0.7782346898368999  0.3739198384996456
  0.6678143491945718  0.6678143312376363  0.5442145035793615
  0.7779959694714194  0.7779960069047078  0.7258064166859839
  0.6827084622445341  0.6827084442875986  0.8680310118586192
 
  0.00000000E+00  0.00000000E+00  0.00000000E+00
  0.00000000E+00  0.00000000E+00  0.00000000E+00
  0.00000000E+00  0.00000000E+00  0.00000000E+00
  0.00000000E+00  0.00000000E+00  0.00000000E+00
  0.00000000E+00  0.00000000E+00  0.00000000E+00
  0.00000000E+00  0.00000000E+00  0.00000000E+00
  0.00000000E+00  0.00000000E+00  0.00000000E+00
  0.00000000E+00  0.00000000E+00  0.00000000E+00
  0.00000000E+00  0.00000000E+00  0.00000000E+00
  0.00000000E+00  0.00000000E+00  0.00000000E+00
  0.00000000E+00  0.00000000E+00  0.00000000E+00
  0.00000000E+00  0.00000000E+00  0.00000000E+00
  0.00000000E+00  0.00000000E+00  0.00000000E+00
  0.00000000E+00  0.00000000E+00  0.00000000E+00
  0.00000000E+00  0.00000000E+00  0.00000000E+00
  0.00000000E+00  0.00000000E+00  0.00000000E+00
  0.00000000E+00  0.00000000E+00  0.00000000E+00
  0.00000000E+00  0.00000000E+00  0.00000000E+00
  0.00000000E+00  0.00000000E+00  0.00000000E+00
  0.00000000E+00  0.00000000E+00  0.00000000E+00
  0.00000000E+00  0.00000000E+00  0.00000000E+00
  0.00000000E+00  0.00000000E+00  0.00000000E+00
  0.00000000E+00  0.00000000E+00  0.00000000E+00
  0.00000000E+00  0.00000000E+00  0.00000000E+00
  0.00000000E+00  0.00000000E+00  0.00000000E+00
  0.00000000E+00  0.00000000E+00  0.00000000E+00
  0.00000000E+00  0.00000000E+00  0.00000000E+00
  0.00000000E+00  0.00000000E+00  0.00000000E+00
  0.00000000E+00  0.00000000E+00  0.00000000E+00
  0.00000000E+00  0.00000000E+00  0.00000000E+00
  0.00000000E+00  0.00000000E+00  0.00000000E+00
  0.00000000E+00  0.00000000E+00  0.00000000E+00
  0.00000000E+00  0.00000000E+00  0.00000000E+00
  0.00000000E+00  0.00000000E+00  0.00000000E+00
  0.00000000E+00  0.00000000E+00  0.00000000E+00
  0.00000000E+00  0.00000000E+00  0.00000000E+00
  0.00000000E+00  0.00000000E+00  0.00000000E+00
  0.00000000E+00  0.00000000E+00  0.00000000E+00
  0.00000000E+00  0.00000000E+00  0.00000000E+00
  0.00000000E+00  0.00000000E+00  0.00000000E+00
  0.00000000E+00  0.00000000E+00  0.00000000E+00
  0.00000000E+00  0.00000000E+00  0.00000000E+00
  0.00000000E+00  0.00000000E+00  0.00000000E+00
  0.00000000E+00  0.00000000E+00  0.00000000E+00
  0.00000000E+00  0.00000000E+00  0.00000000E+00
  0.00000000E+00  0.00000000E+00  0.00000000E+00
  0.00000000E+00  0.00000000E+00  0.00000000E+00
  0.00000000E+00  0.00000000E+00  0.00000000E+00
  0.00000000E+00  0.00000000E+00  0.00000000E+00
  0.00000000E+00  0.00000000E+00  0.00000000E+00
  0.00000000E+00  0.00000000E+00  0.00000000E+00
  0.00000000E+00  0.00000000E+00  0.00000000E+00
  0.00000000E+00  0.00000000E+00  0.00000000E+00
  0.00000000E+00  0.00000000E+00  0.00000000E+00
  0.00000000E+00  0.00000000E+00  0.00000000E+00
  0.00000000E+00  0.00000000E+00  0.00000000E+00
  0.00000000E+00  0.00000000E+00  0.00000000E+00
  0.00000000E+00  0.00000000E+00  0.00000000E+00
  0.00000000E+00  0.00000000E+00  0.00000000E+00
  0.00000000E+00  0.00000000E+00  0.00000000E+00
  0.00000000E+00  0.00000000E+00  0.00000000E+00
  0.00000000E+00  0.00000000E+00  0.00000000E+00
  0.00000000E+00  0.00000000E+00  0.00000000E+00
  0.00000000E+00  0.00000000E+00  0.00000000E+00
  0.00000000E+00  0.00000000E+00  0.00000000E+00
  0.00000000E+00  0.00000000E+00  0.00000000E+00
  0.00000000E+00  0.00000000E+00  0.00000000E+00
  0.00000000E+00  0.00000000E+00  0.00000000E+00
  0.00000000E+00  0.00000000E+00  0.00000000E+00
  0.00000000E+00  0.00000000E+00  0.00000000E+00
  0.00000000E+00  0.00000000E+00  0.00000000E+00
  0.00000000E+00  0.00000000E+00  0.00000000E+00
  0.00000000E+00  0.00000000E+00  0.00000000E+00
  0.00000000E+00  0.00000000E+00  0.00000000E+00
  0.00000000E+00  0.00000000E+00  0.00000000E+00
  0.00000000E+00  0.00000000E+00  0.00000000E+00
  0.00000000E+00  0.00000000E+00  0.00000000E+00
  0.00000000E+00  0.00000000E+00  0.00000000E+00
  0.00000000E+00  0.00000000E+00  0.00000000E+00
  0.00000000E+00  0.00000000E+00  0.00000000E+00
  0.00000000E+00  0.00000000E+00  0.00000000E+00
  0.00000000E+00  0.00000000E+00  0.00000000E+00
  0.00000000E+00  0.00000000E+00  0.00000000E+00
  0.00000000E+00  0.00000000E+00  0.00000000E+00
  0.00000000E+00  0.00000000E+00  0.00000000E+00
  0.00000000E+00  0.00000000E+00  0.00000000E+00
  0.00000000E+00  0.00000000E+00  0.00000000E+00
  0.00000000E+00  0.00000000E+00  0.00000000E+00
  0.00000000E+00  0.00000000E+00  0.00000000E+00
  0.00000000E+00  0.00000000E+00  0.00000000E+00
  0.00000000E+00  0.00000000E+00  0.00000000E+00
  0.00000000E+00  0.00000000E+00  0.00000000E+00
  0.00000000E+00  0.00000000E+00  0.00000000E+00
  0.00000000E+00  0.00000000E+00  0.00000000E+00
  0.00000000E+00  0.00000000E+00  0.00000000E+00
  0.00000000E+00  0.00000000E+00  0.00000000E+00
  0.00000000E+00  0.00000000E+00  0.00000000E+00
  0.00000000E+00  0.00000000E+00  0.00000000E+00
  0.00000000E+00  0.00000000E+00  0.00000000E+00
  0.00000000E+00  0.00000000E+00  0.00000000E+00
  0.00000000E+00  0.00000000E+00  0.00000000E+00
  0.00000000E+00  0.00000000E+00  0.00000000E+00
  0.00000000E+00  0.00000000E+00  0.00000000E+00
  0.00000000E+00  0.00000000E+00  0.00000000E+00
  0.00000000E+00  0.00000000E+00  0.00000000E+00
  0.00000000E+00  0.00000000E+00  0.00000000E+00
  0.00000000E+00  0.00000000E+00  0.00000000E+00
  0.00000000E+00  0.00000000E+00  0.00000000E+00
