B Ga N                                  
   1.00000000000000     
     9.5484322546959923    0.0000000000000000    0.0000000000000000
     4.7742161273479962    8.2691858175892232    0.0000000000000000
     0.0000000000000000    0.0000000000000000   15.5476956856085131
   B    Ga   N 
     3    51    54
Direct
  0.4540536603333081  0.4396398583821437  0.4969257091970007
  0.6678970787753471  0.3327181184731884  0.3380222142567320
  0.1104697165886961  0.1114318117795250  0.4977498246521748
  0.9984916457800992  0.0003963458816756  0.0015664837907252
  0.1110469822622093  0.1111431789427684  0.1675495164068508
  0.9972332357006408  0.0084118255439520  0.3388208691067405
  0.0025617122017962  0.0037059159233337  0.6604444230774646
  0.1104153677732285  0.1114589861872588  0.8338878953849118
  0.9984916274778399  0.3344453416715609  0.0015664837907252
  0.1113973184311661  0.4433891841073390  0.1697948643476721
  0.9972332173983816  0.3276882720887428  0.3388208691067405
  0.1185657069552377  0.4397802162328617  0.4984777951356207
  0.0025616938995370  0.3270657052082058  0.6604444230774646
  0.1118636880580937  0.4429600894225345  0.8307435000620771
  0.0010876359486574  0.6661228578434688  0.0001036868282327
  0.1113973001289068  0.7785468742137738  0.1697948643476721
  0.9996326623601277  0.6668503446377301  0.3334192640421278
  0.1185656886529785  0.7749874535641723  0.4984777951356207
  0.9998477282103337  0.6667428117126306  0.6650701460709314
  0.1118636697558344  0.7785095992716435  0.8307435000620771
  0.3340715850224427  0.9996308743281048  0.9999207297803920
  0.4430647622245232  0.1116610633739725  0.1694555099549149
  0.3286065782541172  0.0023633777122711  0.3384842573168214
  0.4398763125503393  0.1176530317504643  0.4990017628265733
  0.3265289992416314  0.0034021672185176  0.6616207805919743
  0.4438013003953145  0.1118819213815954  0.8306524517841964
  0.3334769093147685  0.3331868181978734  0.0016735098836165
  0.4481671799580482  0.4425830985697701  0.1722550197595609
  0.3417082040226873  0.3349345592366291  0.3380073491896169
  0.3369859399579838  0.3367677143939147  0.6606089080694346
  0.4439666426386353  0.4446833672294801  0.8344020166865249
  0.3334769459192870  0.6666695878637583  0.0016735098836165
  0.4430647805267824  0.7786075148945812  0.1694555099549149
  0.3417082406272058  0.6566905521170838  0.3380073491896169
  0.4398763308525986  0.7758039961922663  0.4990017628265733
  0.3369859765625023  0.6595796610245017  0.6606089080694346
  0.4438013186975738  0.7776501187161671  0.8306524517841964
  0.6664375947893433  0.0018692180211914  0.0013472309475659
  0.7754383628008412  0.1165851707980750  0.1744589158946539
  0.6649798607781463  0.0066520866138760  0.3338677649535313
  0.7721789620562518  0.1241225082936523  0.4958772441050883
  0.6675874761264780  0.9999288144417875  0.6639021659101019
  0.7784682872462128  0.1112939170697089  0.8308350002687064
  0.6675916420815113  0.3328708368201063  0.0009129069926530
  0.7754383983693813  0.4413098072394845  0.1744589158946539
  0.7721789976247919  0.4370318704884895  0.4958772441050883
  0.6603823905762383  0.3364754625727500  0.6630228524774679
  0.7784683228147529  0.4435711365224719  0.8308350002687064
  0.6664376120556241  0.6650265212134485  0.0013472309475659
  0.7777954037533235  0.7777689771756826  0.1669761375269729
  0.6649798780444272  0.6617013866319610  0.3338677649535313
  0.7786715748656334  0.7773308916195276  0.4980067647078528
  0.6675874933927588  0.6658170434557178  0.6639021659101019
  0.7774048130258180  0.7779642725394353  0.8332261256168536
  0.1113465126818483  0.1109934137329489  0.0415984971997929
  0.0007173938628142  0.0017575440407072  0.2121892066399198
  0.1113570596756261  0.1109881402360600  0.3927423166481105
  0.0139118211404039  0.0167145783071732  0.5323484434793357
  0.1103528089944916  0.1114902655766272  0.7089335520652398
  0.9991302840882526  0.9996761026677916  0.8747856138393999
  0.1110252494142685  0.4442269242218799  0.0430792482876470
  0.0007173755605550  0.3308583954298143  0.2121892066399198
  0.1108226702065167  0.4437909222796677  0.3738421798179061
  0.0139118028381446  0.3027069338857586  0.5323484434793357
  0.1127097284024572  0.4414239107852609  0.7027422783062178
  0.9991302657859933  0.3345269465772915  0.8747856138393999
  0.1110252311120092  0.7780812031161304  0.0430792482876470
  0.9995540693217393  0.6668896411569207  0.2082254600681068
  0.1108226519042574  0.7787197842660873  0.3738421798179061
  0.0011373289988299  0.6660980113183754  0.5396073450240237
  0.1127097101001979  0.7791997375645465  0.7027422783062178
  0.0014772441194921  0.6659280537580514  0.8728159521139887
  0.4439908938953039  0.1109810390770249  0.0429634533655374
  0.3307652478301790  0.0012840429242402  0.2116552912251990
  0.4440652295552354  0.1111087351486972  0.3747343656135840
  0.3013724100290744  0.0159804618247961  0.5339645029275744
  0.4426681367257501  0.1124119133485451  0.7026192181768423
  0.3343065475740374  0.9995133930523110  0.8734616282509791
  0.4465793631629964  0.4433770069673031  0.0446749236120283
  0.3340833155167999  0.3340921526272709  0.2114749848042408
  0.4730312402760646  0.4301510684107654  0.3859703396980620
  0.3518204059272065  0.3492804859794845  0.5321997492809629
  0.4438618526823106  0.4447357622076424  0.7096742570652097
  0.3329729107558705  0.3329128214662092  0.8748427369222824
  0.4439909121975631  0.7783614075207481  0.0429634533655374
  0.3340833521213185  0.6651578472323294  0.2114749848042408
  0.4440652478574947  0.7781593757891443  0.3747343656135840
  0.3518204425317251  0.6322324234697092  0.5321997492809629
  0.4426681550280094  0.7782532904187818  0.7026192181768423
  0.3329729473603891  0.6674475831543205  0.8748427369222824
  0.7768876205812418  0.1134341366214784  0.0462115178419324
  0.6665464446961877  0.9998352545058538  0.2087188483715394
  0.7615389161723272  0.1439211753778551  0.3694190347953707
  0.6682314311415567  0.0011325038487584  0.5378413554721106
  0.7791468203133576  0.1120714941317260  0.7034815480794734
  0.6661808683272383  0.0015833658851179  0.8738597058252395
  0.7768876561497819  0.4430115836356876  0.0462115178419324
  0.6626055205073698  0.3353638976071807  0.2304483087208240
  0.7615389517408673  0.4278732492882185  0.3694190347953707
  0.6343411667367391  0.3494960744924924  0.5365606625988164
  0.7791468558818977  0.4421150263933171  0.7034815480794734
  0.6676433342817347  0.3328449907199982  0.8744297715209086
  0.7778131933417072  0.7777600823814907  0.0406913890046994
  0.6665464619624686  0.6669516348219418  0.2087188483715394
  0.7764178880508936  0.7784577350268975  0.3730800987340075
  0.6682314484078375  0.6639693990336681  0.5378413554721106
  0.7772634385988582  0.7780349597529153  0.7067085284368844
  0.6661808855935192  0.6655690998116270  0.8738597058252395
 
  0.00000000E+00  0.00000000E+00  0.00000000E+00
  0.00000000E+00  0.00000000E+00  0.00000000E+00
  0.00000000E+00  0.00000000E+00  0.00000000E+00
  0.00000000E+00  0.00000000E+00  0.00000000E+00
  0.00000000E+00  0.00000000E+00  0.00000000E+00
  0.00000000E+00  0.00000000E+00  0.00000000E+00
  0.00000000E+00  0.00000000E+00  0.00000000E+00
  0.00000000E+00  0.00000000E+00  0.00000000E+00
  0.00000000E+00  0.00000000E+00  0.00000000E+00
  0.00000000E+00  0.00000000E+00  0.00000000E+00
  0.00000000E+00  0.00000000E+00  0.00000000E+00
  0.00000000E+00  0.00000000E+00  0.00000000E+00
  0.00000000E+00  0.00000000E+00  0.00000000E+00
  0.00000000E+00  0.00000000E+00  0.00000000E+00
  0.00000000E+00  0.00000000E+00  0.00000000E+00
  0.00000000E+00  0.00000000E+00  0.00000000E+00
  0.00000000E+00  0.00000000E+00  0.00000000E+00
  0.00000000E+00  0.00000000E+00  0.00000000E+00
  0.00000000E+00  0.00000000E+00  0.00000000E+00
  0.00000000E+00  0.00000000E+00  0.00000000E+00
  0.00000000E+00  0.00000000E+00  0.00000000E+00
  0.00000000E+00  0.00000000E+00  0.00000000E+00
  0.00000000E+00  0.00000000E+00  0.00000000E+00
  0.00000000E+00  0.00000000E+00  0.00000000E+00
  0.00000000E+00  0.00000000E+00  0.00000000E+00
  0.00000000E+00  0.00000000E+00  0.00000000E+00
  0.00000000E+00  0.00000000E+00  0.00000000E+00
  0.00000000E+00  0.00000000E+00  0.00000000E+00
  0.00000000E+00  0.00000000E+00  0.00000000E+00
  0.00000000E+00  0.00000000E+00  0.00000000E+00
  0.00000000E+00  0.00000000E+00  0.00000000E+00
  0.00000000E+00  0.00000000E+00  0.00000000E+00
  0.00000000E+00  0.00000000E+00  0.00000000E+00
  0.00000000E+00  0.00000000E+00  0.00000000E+00
  0.00000000E+00  0.00000000E+00  0.00000000E+00
  0.00000000E+00  0.00000000E+00  0.00000000E+00
  0.00000000E+00  0.00000000E+00  0.00000000E+00
  0.00000000E+00  0.00000000E+00  0.00000000E+00
  0.00000000E+00  0.00000000E+00  0.00000000E+00
  0.00000000E+00  0.00000000E+00  0.00000000E+00
  0.00000000E+00  0.00000000E+00  0.00000000E+00
  0.00000000E+00  0.00000000E+00  0.00000000E+00
  0.00000000E+00  0.00000000E+00  0.00000000E+00
  0.00000000E+00  0.00000000E+00  0.00000000E+00
  0.00000000E+00  0.00000000E+00  0.00000000E+00
  0.00000000E+00  0.00000000E+00  0.00000000E+00
  0.00000000E+00  0.00000000E+00  0.00000000E+00
  0.00000000E+00  0.00000000E+00  0.00000000E+00
  0.00000000E+00  0.00000000E+00  0.00000000E+00
  0.00000000E+00  0.00000000E+00  0.00000000E+00
  0.00000000E+00  0.00000000E+00  0.00000000E+00
  0.00000000E+00  0.00000000E+00  0.00000000E+00
  0.00000000E+00  0.00000000E+00  0.00000000E+00
  0.00000000E+00  0.00000000E+00  0.00000000E+00
  0.00000000E+00  0.00000000E+00  0.00000000E+00
  0.00000000E+00  0.00000000E+00  0.00000000E+00
  0.00000000E+00  0.00000000E+00  0.00000000E+00
  0.00000000E+00  0.00000000E+00  0.00000000E+00
  0.00000000E+00  0.00000000E+00  0.00000000E+00
  0.00000000E+00  0.00000000E+00  0.00000000E+00
  0.00000000E+00  0.00000000E+00  0.00000000E+00
  0.00000000E+00  0.00000000E+00  0.00000000E+00
  0.00000000E+00  0.00000000E+00  0.00000000E+00
  0.00000000E+00  0.00000000E+00  0.00000000E+00
  0.00000000E+00  0.00000000E+00  0.00000000E+00
  0.00000000E+00  0.00000000E+00  0.00000000E+00
  0.00000000E+00  0.00000000E+00  0.00000000E+00
  0.00000000E+00  0.00000000E+00  0.00000000E+00
  0.00000000E+00  0.00000000E+00  0.00000000E+00
  0.00000000E+00  0.00000000E+00  0.00000000E+00
  0.00000000E+00  0.00000000E+00  0.00000000E+00
  0.00000000E+00  0.00000000E+00  0.00000000E+00
  0.00000000E+00  0.00000000E+00  0.00000000E+00
  0.00000000E+00  0.00000000E+00  0.00000000E+00
  0.00000000E+00  0.00000000E+00  0.00000000E+00
  0.00000000E+00  0.00000000E+00  0.00000000E+00
  0.00000000E+00  0.00000000E+00  0.00000000E+00
  0.00000000E+00  0.00000000E+00  0.00000000E+00
  0.00000000E+00  0.00000000E+00  0.00000000E+00
  0.00000000E+00  0.00000000E+00  0.00000000E+00
  0.00000000E+00  0.00000000E+00  0.00000000E+00
  0.00000000E+00  0.00000000E+00  0.00000000E+00
  0.00000000E+00  0.00000000E+00  0.00000000E+00
  0.00000000E+00  0.00000000E+00  0.00000000E+00
  0.00000000E+00  0.00000000E+00  0.00000000E+00
  0.00000000E+00  0.00000000E+00  0.00000000E+00
  0.00000000E+00  0.00000000E+00  0.00000000E+00
  0.00000000E+00  0.00000000E+00  0.00000000E+00
  0.00000000E+00  0.00000000E+00  0.00000000E+00
  0.00000000E+00  0.00000000E+00  0.00000000E+00
  0.00000000E+00  0.00000000E+00  0.00000000E+00
  0.00000000E+00  0.00000000E+00  0.00000000E+00
  0.00000000E+00  0.00000000E+00  0.00000000E+00
  0.00000000E+00  0.00000000E+00  0.00000000E+00
  0.00000000E+00  0.00000000E+00  0.00000000E+00
  0.00000000E+00  0.00000000E+00  0.00000000E+00
  0.00000000E+00  0.00000000E+00  0.00000000E+00
  0.00000000E+00  0.00000000E+00  0.00000000E+00
  0.00000000E+00  0.00000000E+00  0.00000000E+00
  0.00000000E+00  0.00000000E+00  0.00000000E+00
  0.00000000E+00  0.00000000E+00  0.00000000E+00
  0.00000000E+00  0.00000000E+00  0.00000000E+00
  0.00000000E+00  0.00000000E+00  0.00000000E+00
  0.00000000E+00  0.00000000E+00  0.00000000E+00
  0.00000000E+00  0.00000000E+00  0.00000000E+00
  0.00000000E+00  0.00000000E+00  0.00000000E+00
  0.00000000E+00  0.00000000E+00  0.00000000E+00
  0.00000000E+00  0.00000000E+00  0.00000000E+00
