B Ga N                                  
   1.00000000000000     
     9.5569934204057230    0.0000000000000000    0.0000000000000000
     4.7784967102028615    8.2766000054035764    0.0000000000000000
     0.0000000000000000    0.0000000000000000   15.5479219785268814
   B    Ga   N 
     3    51    54
Direct
  0.4484917805332458  0.4363497975907364  0.4946732630274369
  0.6712314887335467  0.3266554107810862  0.3347286034512393
  0.3354463982501628  0.3266554107810862  0.3347286034512393
  0.9990380096394276  0.0002723622467258  0.0008643336563097
  0.1111385894962780  0.1110561057649662  0.1670125923236299
  0.9955826085868082  0.0058797525631178  0.3334136981202889
  0.1108820486153448  0.1115691875268396  0.4989939045268272
  0.9989278928985712  0.0006983133267084  0.6644134810962825
  0.1106816408392675  0.1119700030789943  0.8327426287513617
  0.9994575566358890  0.3344181834570392  0.0025659083208112
  0.1163476392283656  0.4420419550895502  0.1731965305081573
  0.0013238372317090  0.3306856222653991  0.3340227562753313
  0.1239138498268417  0.4428742235159859  0.4950992670892234
  0.9995055058478002  0.3343222850332168  0.6628190097914839
  0.1121864414350995  0.4435513536268800  0.8321634709298635
  0.0014017033583045  0.6652694779213633  0.0014538092459944
  0.1125148667668441  0.7772489604211046  0.1687676512308940
  0.0072985000838344  0.6618279857608087  0.3331155614947363
  0.1159115366336039  0.7721265611895376  0.4982844218894016
  0.0005033622317043  0.6657009971208154  0.6643891375846138
  0.1126764563565246  0.7768102859635349  0.8321093830997626
  0.3340229617925132  0.0002723622467258  0.0008643336563097
  0.4423569622333048  0.1155226587453342  0.1722582711291381
  0.3318709725287334  0.0058797525631178  0.3334136981202889
  0.4425388317095340  0.1231634064047213  0.4953315878641860
  0.3337071274533798  0.0006983133267084  0.6644134810962825
  0.4444673751763730  0.1122503633970737  0.8321506129626002
  0.3341271858119157  0.3335303875954239  0.0024586648839247
  0.4464838813423029  0.4403655959726223  0.1788524003867877
  0.3370610311900251  0.3368323789000129  0.6621182134225663
  0.4441687954771325  0.4449957677029559  0.8345104037111568
  0.3343775751197171  0.6645782203890747  0.0032946231114011
  0.4435694945194300  0.7772489604211046  0.1687676512308940
  0.3406438957199498  0.6520455791885951  0.3390084057462133
  0.4452952238842443  0.7721265611895376  0.4982844218894016
  0.3367801336520984  0.6597731033243051  0.6602421959319855
  0.4438465793873192  0.7768102859635349  0.8321093830997626
  0.6659239012470977  0.0014855322204355  0.0024380143032943
  0.7754536648148687  0.1155226587453342  0.1722582711291381
  0.6596297987565549  0.0140737372015280  0.3330518430146583
  0.7676310476792523  0.1231634064047213  0.4953315878641860
  0.6663532438765642  0.0006268469615094  0.6631160568477341
  0.7766155472200538  0.1122503633970737  0.8321506129626002
  0.6656757243574560  0.3335303875954239  0.0024586648839247
  0.7749437633033196  0.4420419550895502  0.1731965305081573
  0.7665452842784077  0.4428742235159859  0.4950992670892234
  0.6594398876747576  0.3368323789000129  0.6621182134225663
  0.7775955625592630  0.4435513536268800  0.8321634709298635
  0.6666621883128556  0.6652694779213633  0.0014538092459944
  0.7781362518231205  0.7770608170251592  0.1677612449383261
  0.6642068837478803  0.6618279857608087  0.3331155614947363
  0.7782552441466066  0.7768228323781798  0.4975297955406219
  0.6671290102400036  0.6657009971208154  0.6643891375846138
  0.7776337339109531  0.7780658528494939  0.8332496871602757
  0.1112105742829286  0.1109121361916650  0.0412666749994486
  0.9999136603449301  0.0005310696559349  0.2082723366508574
  0.1112158573500963  0.1109015700573366  0.3743636487915936
  0.9963736041287561  0.0016568814104900  0.5379611185385755
  0.1106442856695296  0.1120447134184772  0.7058152361963437
  0.9993356687661716  0.9999126600307875  0.8738563977086642
  0.1135646067967002  0.4430965070935500  0.0456836383742214
  0.0001197576094611  0.3330937815098949  0.2091036200639778
  0.1444202432996562  0.4277649396652592  0.3685284297484230
  0.9979704157206797  0.3373924652874507  0.5356552621009740
  0.1137576795173416  0.4425797554063777  0.7049795446022458
  0.9994210060240221  0.3344912846807730  0.8752293398798727
  0.1111992073338541  0.7779108207833048  0.0425669324065368
  0.0003993543603542  0.6665441532141756  0.2082995240256906
  0.1097050370796993  0.7807443611652332  0.3736466560500062
  0.0009991747994320  0.6644192009570133  0.5383073937262921
  0.1136628457090083  0.7765543692912971  0.7044911063450385
  0.0009122917572313  0.6658692621086502  0.8742795875495233
  0.4433359719210657  0.1128836474745469  0.0451673283636609
  0.3328886036777945  0.0005310696559349  0.2082723366508574
  0.4274401366061937  0.1432165541705999  0.3684673122697149
  0.3353028481394134  0.0016568814104900  0.5379611185385755
  0.4440051614571985  0.1136403517247331  0.7050501594016225
  0.3340850048817003  0.9999126600307875  0.8738563977086642
  0.4457407161342530  0.4418519263887148  0.0495346823530696
  0.3349962710166992  0.3326897077059456  0.2297811400294449
  0.4556892621940776  0.4219548342690658  0.3823684289068154
  0.3515491241288515  0.3494818690610941  0.5344631487806382
  0.4439240624875183  0.4454852336821844  0.7098604013006664
  0.3333912634795126  0.3334573256536117  0.8760932187611274
  0.4442232935902126  0.7779108207833048  0.0425669324065368
  0.3338863591573613  0.6655606523137720  0.2121131488978278
  0.4428839234624462  0.7807443611652332  0.3736466560500062
  0.3499316355976134  0.6334700994332820  0.5309523159700404
  0.4431161067070732  0.7765543692912971  0.7044911063450385
  0.3334893293649657  0.6663547118985704  0.8764403243893142
  0.7771136663978950  0.1128836474745469  0.0451673283636609
  0.6667745741559514  0.9997841864027421  0.2085642867317077
  0.7626765950167140  0.1432165541705999  0.3684673122697149
  0.6659342268688988  0.0014648809768332  0.5360102042120687
  0.7756877726115761  0.1136403517247331  0.7050501594016225
  0.6662607358324095  0.0008118630498188  0.8752190424916293
  0.7766722437309923  0.4430965070935500  0.0456836383742214
  0.6656473190421508  0.3326897077059456  0.2297811400294449
  0.7611481746563342  0.4277649396652592  0.3685284297484230
  0.6323023045748499  0.3494818690610941  0.5344631487806382
  0.7769959226975232  0.4425797554063777  0.7049795446022458
  0.6664847086316783  0.3334573256536117  0.8760932187611274
  0.7779725175637680  0.7773882855438714  0.0415534807520217
  0.6663898620179864  0.6665441532141756  0.2082995240256906
  0.7776438781503074  0.7780455643707853  0.3721002396443964
  0.6679149938360780  0.6644192009570133  0.5383073937262921
  0.7775130013395000  0.7783073179924003  0.7061187322921540
  0.6665518157266419  0.6658692621086502  0.8742795875495233
 
  0.00000000E+00  0.00000000E+00  0.00000000E+00
  0.00000000E+00  0.00000000E+00  0.00000000E+00
  0.00000000E+00  0.00000000E+00  0.00000000E+00
  0.00000000E+00  0.00000000E+00  0.00000000E+00
  0.00000000E+00  0.00000000E+00  0.00000000E+00
  0.00000000E+00  0.00000000E+00  0.00000000E+00
  0.00000000E+00  0.00000000E+00  0.00000000E+00
  0.00000000E+00  0.00000000E+00  0.00000000E+00
  0.00000000E+00  0.00000000E+00  0.00000000E+00
  0.00000000E+00  0.00000000E+00  0.00000000E+00
  0.00000000E+00  0.00000000E+00  0.00000000E+00
  0.00000000E+00  0.00000000E+00  0.00000000E+00
  0.00000000E+00  0.00000000E+00  0.00000000E+00
  0.00000000E+00  0.00000000E+00  0.00000000E+00
  0.00000000E+00  0.00000000E+00  0.00000000E+00
  0.00000000E+00  0.00000000E+00  0.00000000E+00
  0.00000000E+00  0.00000000E+00  0.00000000E+00
  0.00000000E+00  0.00000000E+00  0.00000000E+00
  0.00000000E+00  0.00000000E+00  0.00000000E+00
  0.00000000E+00  0.00000000E+00  0.00000000E+00
  0.00000000E+00  0.00000000E+00  0.00000000E+00
  0.00000000E+00  0.00000000E+00  0.00000000E+00
  0.00000000E+00  0.00000000E+00  0.00000000E+00
  0.00000000E+00  0.00000000E+00  0.00000000E+00
  0.00000000E+00  0.00000000E+00  0.00000000E+00
  0.00000000E+00  0.00000000E+00  0.00000000E+00
  0.00000000E+00  0.00000000E+00  0.00000000E+00
  0.00000000E+00  0.00000000E+00  0.00000000E+00
  0.00000000E+00  0.00000000E+00  0.00000000E+00
  0.00000000E+00  0.00000000E+00  0.00000000E+00
  0.00000000E+00  0.00000000E+00  0.00000000E+00
  0.00000000E+00  0.00000000E+00  0.00000000E+00
  0.00000000E+00  0.00000000E+00  0.00000000E+00
  0.00000000E+00  0.00000000E+00  0.00000000E+00
  0.00000000E+00  0.00000000E+00  0.00000000E+00
  0.00000000E+00  0.00000000E+00  0.00000000E+00
  0.00000000E+00  0.00000000E+00  0.00000000E+00
  0.00000000E+00  0.00000000E+00  0.00000000E+00
  0.00000000E+00  0.00000000E+00  0.00000000E+00
  0.00000000E+00  0.00000000E+00  0.00000000E+00
  0.00000000E+00  0.00000000E+00  0.00000000E+00
  0.00000000E+00  0.00000000E+00  0.00000000E+00
  0.00000000E+00  0.00000000E+00  0.00000000E+00
  0.00000000E+00  0.00000000E+00  0.00000000E+00
  0.00000000E+00  0.00000000E+00  0.00000000E+00
  0.00000000E+00  0.00000000E+00  0.00000000E+00
  0.00000000E+00  0.00000000E+00  0.00000000E+00
  0.00000000E+00  0.00000000E+00  0.00000000E+00
  0.00000000E+00  0.00000000E+00  0.00000000E+00
  0.00000000E+00  0.00000000E+00  0.00000000E+00
  0.00000000E+00  0.00000000E+00  0.00000000E+00
  0.00000000E+00  0.00000000E+00  0.00000000E+00
  0.00000000E+00  0.00000000E+00  0.00000000E+00
  0.00000000E+00  0.00000000E+00  0.00000000E+00
  0.00000000E+00  0.00000000E+00  0.00000000E+00
  0.00000000E+00  0.00000000E+00  0.00000000E+00
  0.00000000E+00  0.00000000E+00  0.00000000E+00
  0.00000000E+00  0.00000000E+00  0.00000000E+00
  0.00000000E+00  0.00000000E+00  0.00000000E+00
  0.00000000E+00  0.00000000E+00  0.00000000E+00
  0.00000000E+00  0.00000000E+00  0.00000000E+00
  0.00000000E+00  0.00000000E+00  0.00000000E+00
  0.00000000E+00  0.00000000E+00  0.00000000E+00
  0.00000000E+00  0.00000000E+00  0.00000000E+00
  0.00000000E+00  0.00000000E+00  0.00000000E+00
  0.00000000E+00  0.00000000E+00  0.00000000E+00
  0.00000000E+00  0.00000000E+00  0.00000000E+00
  0.00000000E+00  0.00000000E+00  0.00000000E+00
  0.00000000E+00  0.00000000E+00  0.00000000E+00
  0.00000000E+00  0.00000000E+00  0.00000000E+00
  0.00000000E+00  0.00000000E+00  0.00000000E+00
  0.00000000E+00  0.00000000E+00  0.00000000E+00
  0.00000000E+00  0.00000000E+00  0.00000000E+00
  0.00000000E+00  0.00000000E+00  0.00000000E+00
  0.00000000E+00  0.00000000E+00  0.00000000E+00
  0.00000000E+00  0.00000000E+00  0.00000000E+00
  0.00000000E+00  0.00000000E+00  0.00000000E+00
  0.00000000E+00  0.00000000E+00  0.00000000E+00
  0.00000000E+00  0.00000000E+00  0.00000000E+00
  0.00000000E+00  0.00000000E+00  0.00000000E+00
  0.00000000E+00  0.00000000E+00  0.00000000E+00
  0.00000000E+00  0.00000000E+00  0.00000000E+00
  0.00000000E+00  0.00000000E+00  0.00000000E+00
  0.00000000E+00  0.00000000E+00  0.00000000E+00
  0.00000000E+00  0.00000000E+00  0.00000000E+00
  0.00000000E+00  0.00000000E+00  0.00000000E+00
  0.00000000E+00  0.00000000E+00  0.00000000E+00
  0.00000000E+00  0.00000000E+00  0.00000000E+00
  0.00000000E+00  0.00000000E+00  0.00000000E+00
  0.00000000E+00  0.00000000E+00  0.00000000E+00
  0.00000000E+00  0.00000000E+00  0.00000000E+00
  0.00000000E+00  0.00000000E+00  0.00000000E+00
  0.00000000E+00  0.00000000E+00  0.00000000E+00
  0.00000000E+00  0.00000000E+00  0.00000000E+00
  0.00000000E+00  0.00000000E+00  0.00000000E+00
  0.00000000E+00  0.00000000E+00  0.00000000E+00
  0.00000000E+00  0.00000000E+00  0.00000000E+00
  0.00000000E+00  0.00000000E+00  0.00000000E+00
  0.00000000E+00  0.00000000E+00  0.00000000E+00
  0.00000000E+00  0.00000000E+00  0.00000000E+00
  0.00000000E+00  0.00000000E+00  0.00000000E+00
  0.00000000E+00  0.00000000E+00  0.00000000E+00
  0.00000000E+00  0.00000000E+00  0.00000000E+00
  0.00000000E+00  0.00000000E+00  0.00000000E+00
  0.00000000E+00  0.00000000E+00  0.00000000E+00
  0.00000000E+00  0.00000000E+00  0.00000000E+00
  0.00000000E+00  0.00000000E+00  0.00000000E+00
  0.00000000E+00  0.00000000E+00  0.00000000E+00
