B Ga N                                  
   1.00000000000000     
     9.5678004556011089    0.0000000000000000    0.0000000000000000
     4.7839002278005545    8.2859591734621780    0.0000000000000000
     0.0000000000000000    0.0000000000000000   15.6425850166536122
   B    Ga   N 
     2    52    54
Direct
  0.6669881732816592  0.3266230902110081  0.3305493248605273
  0.3397220342721283  0.3266230902110081  0.3305493248605273
  0.4472519123416987  0.4388295339738164  0.4922259286659241
  0.9990391302985131  0.0008186431168227  0.0007901931077043
  0.1113659501013302  0.1106013845548688  0.1667240556897340
  0.9948129194846302  0.0069968070293740  0.3325642465169736
  0.1110767556713057  0.1111797734149178  0.4993238113578755
  0.9986991419412519  0.0008280700424095  0.6652793639938253
  0.1108664670386972  0.1116003506801349  0.8330645793196894
  0.9995004905305294  0.3343323156677585  0.0025797884865781
  0.1160142800282031  0.4417544520406409  0.1720987896060606
  0.0009644239007827  0.3314044489272447  0.3330892567626265
  0.1182123636585644  0.4414389187346757  0.4951144060708117
  0.9991474842095300  0.3350383283097642  0.6637493400477936
  0.1110974126409161  0.4439150904043672  0.8334320061541405
  0.0005771792330762  0.6658513800829127  0.0014384596639303
  0.1114473261342965  0.7774761750770622  0.1671525842064909
  0.0074572345359201  0.6619199242939331  0.3327357648540570
  0.1109826733991284  0.7779125139011711  0.4987365842685278
  0.0003315306443454  0.6659671816542314  0.6648788241191497
  0.1118392733206264  0.7769276864133374  0.8332811069939510
  0.3334755602633166  0.0008186431168227  0.0007901931077043
  0.4428270931791545  0.1141607543618690  0.1709401563538648
  0.3315236071646552  0.0069968070293740  0.3325642465169736
  0.4412699052674043  0.1176832546484547  0.4953934252442238
  0.3338061216949981  0.0008280700424095  0.6652793639938253
  0.4452253404492907  0.1108024956620568  0.8333929590189726
  0.3339630900952244  0.3339431715017938  0.0018864700215744
  0.4468201625223713  0.4396930336124711  0.1773230517997320
  0.3336905322590198  0.3342120902706540  0.6661462039804533
  0.4444011182617089  0.4445311221337960  0.8336980669937830
  0.3343500445500780  0.6646332815283458  0.0027112476700282
  0.4444098204960198  0.7774761750770622  0.1671525842064909
  0.3376589510582946  0.6580154685119055  0.3335348229992121
  0.4444381344070791  0.7779125139011711  0.4987365842685278
  0.3339737620890517  0.6653858464503912  0.6642402398873131
  0.4445663619734148  0.7769276864133374  0.8332811069939510
  0.6660605923381553  0.0012121500383273  0.0023811078665972
  0.7763454382524841  0.1141607543618690  0.1709401563538648
  0.6600702175842912  0.0131928995460626  0.3323419249167756
  0.7743801258776486  0.1176832546484547  0.4953934252442238
  0.6661040747250411  0.0011251852645557  0.6637297953914825
  0.7773054496821530  0.1108024956620568  0.8333929590189726
  0.6654270361677774  0.3339431715017938  0.0018864700215744
  0.7755646255523914  0.4417544520406409  0.1720987896060606
  0.7736820752280025  0.4414389187346757  0.4951144060708117
  0.6654306752351218  0.3342120902706540  0.6661462039804533
  0.7783208545759592  0.4439150904043672  0.8334320061541405
  0.6669048102765274  0.6658513800829127  0.0014384596639303
  0.7784194158026949  0.7764944890660104  0.1676011760533740
  0.6639562107626702  0.6619199242939331  0.3327357648540570
  0.7782579627589854  0.7768173951534365  0.4978771121413388
  0.6670346572939465  0.6659671816542314  0.6648788241191497
  0.7777433945856913  0.7778465315000105  0.8331784714376980
  0.1110849720064948  0.1111633407445325  0.0417331637054588
  0.0003733286077363  0.9998252345460230  0.2079288716784120
  0.1107248841922939  0.1118835163729415  0.3745957775931146
  0.9971935468502053  0.0014767670742160  0.5389800568884624
  0.1105050561810543  0.1123231723954206  0.7064064225965865
  0.9998204914242876  0.9999145582275943  0.8747746655130513
  0.1132366995816980  0.4435720010732354  0.0452895188460758
  0.0003440194883453  0.3326452577521337  0.2087509852875939
  0.1459783108845585  0.4293178148712329  0.3679246534284815
  0.9985965331113107  0.3361402305061887  0.5366127308751203
  0.1109179410463881  0.4443121511648300  0.7074681143969457
  0.9999302836411914  0.3334727294464344  0.8762160841023530
  0.1107947706744667  0.7783005337157576  0.0418463457359906
  0.0007845593002358  0.6661553985994715  0.2080539288692478
  0.1099378922504499  0.7811181810126726  0.3736548933877941
  0.0012764674615937  0.6642555318644980  0.5386982869028145
  0.1114191818476655  0.7777909254151893  0.7066982815747593
  0.0002474714387404  0.6660227799987979  0.8752016877158226
  0.4432374148613505  0.1130679827243952  0.0446149937311517
  0.3331347705249001  0.9998252345460230  0.2079288716784120
  0.4285182180180058  0.1429198161039977  0.3675752612531866
  0.3346630197542382  0.0014767670742160  0.5389800568884624
  0.4450254814789005  0.1114194641184127  0.7074530011420634
  0.3335982840267775  0.9999145582275943  0.8747746655130513
  0.4455449930610413  0.4422433725351453  0.0485477854800536
  0.3346628733954091  0.3309644050379319  0.2266616276302216
  0.4577370797096023  0.4178591992380234  0.3639892311506472
  0.3349506667236781  0.3342909893738053  0.5414215280012087
  0.4440357533982748  0.4452618518606712  0.7084467776495202
  0.3335942583606624  0.3332652181420812  0.8758612334935378
  0.4442380173171543  0.7783005337157576  0.0418463457359906
  0.3333245772293694  0.6666842161697630  0.2085818003739917
  0.4422772484442561  0.7811181810126726  0.3736548933877941
  0.3351118371544288  0.6631096963196512  0.5376982985537140
  0.4441232144445237  0.7777909254151893  0.7066982815747593
  0.3338242003681700  0.6656849698921548  0.8762649875370911
  0.7770278882077619  0.1130679827243952  0.0446149937311517
  0.6670788158505871  0.9991757030134636  0.2080677971709122
  0.7618952516715041  0.1429198161039977  0.3675752612531866
  0.6657319396700743  0.0018694553744965  0.5363733774179948
  0.7768883401961943  0.1114194641184127  0.7074530011420634
  0.6667255112077015  0.9998823122992420  0.8761146589988158
  0.7765246569663162  0.4435720010732354  0.0452895188460758
  0.6677060193314546  0.3309644050379319  0.2266616276302216
  0.7580372318654511  0.4293178148712329  0.3679246534284815
  0.6640916416673122  0.3342909893738053  0.5414215280012087
  0.7781032654100173  0.4443121511648300  0.7074681143969457
  0.6664738212620520  0.3332652181420812  0.8758612334935378
  0.7778080706938653  0.7777171792836697  0.0420830177393228
  0.6663934116928161  0.6661553985994715  0.2080539288692478
  0.7777634933938273  0.7778063338837455  0.3724173569040445
  0.6678013702664316  0.6642555318644980  0.5386982869028145
  0.7773155907156450  0.7787021392401101  0.7064674805933393
  0.6670631181549851  0.6660227799987979  0.8752016877158226
 
  0.00000000E+00  0.00000000E+00  0.00000000E+00
  0.00000000E+00  0.00000000E+00  0.00000000E+00
  0.00000000E+00  0.00000000E+00  0.00000000E+00
  0.00000000E+00  0.00000000E+00  0.00000000E+00
  0.00000000E+00  0.00000000E+00  0.00000000E+00
  0.00000000E+00  0.00000000E+00  0.00000000E+00
  0.00000000E+00  0.00000000E+00  0.00000000E+00
  0.00000000E+00  0.00000000E+00  0.00000000E+00
  0.00000000E+00  0.00000000E+00  0.00000000E+00
  0.00000000E+00  0.00000000E+00  0.00000000E+00
  0.00000000E+00  0.00000000E+00  0.00000000E+00
  0.00000000E+00  0.00000000E+00  0.00000000E+00
  0.00000000E+00  0.00000000E+00  0.00000000E+00
  0.00000000E+00  0.00000000E+00  0.00000000E+00
  0.00000000E+00  0.00000000E+00  0.00000000E+00
  0.00000000E+00  0.00000000E+00  0.00000000E+00
  0.00000000E+00  0.00000000E+00  0.00000000E+00
  0.00000000E+00  0.00000000E+00  0.00000000E+00
  0.00000000E+00  0.00000000E+00  0.00000000E+00
  0.00000000E+00  0.00000000E+00  0.00000000E+00
  0.00000000E+00  0.00000000E+00  0.00000000E+00
  0.00000000E+00  0.00000000E+00  0.00000000E+00
  0.00000000E+00  0.00000000E+00  0.00000000E+00
  0.00000000E+00  0.00000000E+00  0.00000000E+00
  0.00000000E+00  0.00000000E+00  0.00000000E+00
  0.00000000E+00  0.00000000E+00  0.00000000E+00
  0.00000000E+00  0.00000000E+00  0.00000000E+00
  0.00000000E+00  0.00000000E+00  0.00000000E+00
  0.00000000E+00  0.00000000E+00  0.00000000E+00
  0.00000000E+00  0.00000000E+00  0.00000000E+00
  0.00000000E+00  0.00000000E+00  0.00000000E+00
  0.00000000E+00  0.00000000E+00  0.00000000E+00
  0.00000000E+00  0.00000000E+00  0.00000000E+00
  0.00000000E+00  0.00000000E+00  0.00000000E+00
  0.00000000E+00  0.00000000E+00  0.00000000E+00
  0.00000000E+00  0.00000000E+00  0.00000000E+00
  0.00000000E+00  0.00000000E+00  0.00000000E+00
  0.00000000E+00  0.00000000E+00  0.00000000E+00
  0.00000000E+00  0.00000000E+00  0.00000000E+00
  0.00000000E+00  0.00000000E+00  0.00000000E+00
  0.00000000E+00  0.00000000E+00  0.00000000E+00
  0.00000000E+00  0.00000000E+00  0.00000000E+00
  0.00000000E+00  0.00000000E+00  0.00000000E+00
  0.00000000E+00  0.00000000E+00  0.00000000E+00
  0.00000000E+00  0.00000000E+00  0.00000000E+00
  0.00000000E+00  0.00000000E+00  0.00000000E+00
  0.00000000E+00  0.00000000E+00  0.00000000E+00
  0.00000000E+00  0.00000000E+00  0.00000000E+00
  0.00000000E+00  0.00000000E+00  0.00000000E+00
  0.00000000E+00  0.00000000E+00  0.00000000E+00
  0.00000000E+00  0.00000000E+00  0.00000000E+00
  0.00000000E+00  0.00000000E+00  0.00000000E+00
  0.00000000E+00  0.00000000E+00  0.00000000E+00
  0.00000000E+00  0.00000000E+00  0.00000000E+00
  0.00000000E+00  0.00000000E+00  0.00000000E+00
  0.00000000E+00  0.00000000E+00  0.00000000E+00
  0.00000000E+00  0.00000000E+00  0.00000000E+00
  0.00000000E+00  0.00000000E+00  0.00000000E+00
  0.00000000E+00  0.00000000E+00  0.00000000E+00
  0.00000000E+00  0.00000000E+00  0.00000000E+00
  0.00000000E+00  0.00000000E+00  0.00000000E+00
  0.00000000E+00  0.00000000E+00  0.00000000E+00
  0.00000000E+00  0.00000000E+00  0.00000000E+00
  0.00000000E+00  0.00000000E+00  0.00000000E+00
  0.00000000E+00  0.00000000E+00  0.00000000E+00
  0.00000000E+00  0.00000000E+00  0.00000000E+00
  0.00000000E+00  0.00000000E+00  0.00000000E+00
  0.00000000E+00  0.00000000E+00  0.00000000E+00
  0.00000000E+00  0.00000000E+00  0.00000000E+00
  0.00000000E+00  0.00000000E+00  0.00000000E+00
  0.00000000E+00  0.00000000E+00  0.00000000E+00
  0.00000000E+00  0.00000000E+00  0.00000000E+00
  0.00000000E+00  0.00000000E+00  0.00000000E+00
  0.00000000E+00  0.00000000E+00  0.00000000E+00
  0.00000000E+00  0.00000000E+00  0.00000000E+00
  0.00000000E+00  0.00000000E+00  0.00000000E+00
  0.00000000E+00  0.00000000E+00  0.00000000E+00
  0.00000000E+00  0.00000000E+00  0.00000000E+00
  0.00000000E+00  0.00000000E+00  0.00000000E+00
  0.00000000E+00  0.00000000E+00  0.00000000E+00
  0.00000000E+00  0.00000000E+00  0.00000000E+00
  0.00000000E+00  0.00000000E+00  0.00000000E+00
  0.00000000E+00  0.00000000E+00  0.00000000E+00
  0.00000000E+00  0.00000000E+00  0.00000000E+00
  0.00000000E+00  0.00000000E+00  0.00000000E+00
  0.00000000E+00  0.00000000E+00  0.00000000E+00
  0.00000000E+00  0.00000000E+00  0.00000000E+00
  0.00000000E+00  0.00000000E+00  0.00000000E+00
  0.00000000E+00  0.00000000E+00  0.00000000E+00
  0.00000000E+00  0.00000000E+00  0.00000000E+00
  0.00000000E+00  0.00000000E+00  0.00000000E+00
  0.00000000E+00  0.00000000E+00  0.00000000E+00
  0.00000000E+00  0.00000000E+00  0.00000000E+00
  0.00000000E+00  0.00000000E+00  0.00000000E+00
  0.00000000E+00  0.00000000E+00  0.00000000E+00
  0.00000000E+00  0.00000000E+00  0.00000000E+00
  0.00000000E+00  0.00000000E+00  0.00000000E+00
  0.00000000E+00  0.00000000E+00  0.00000000E+00
  0.00000000E+00  0.00000000E+00  0.00000000E+00
  0.00000000E+00  0.00000000E+00  0.00000000E+00
  0.00000000E+00  0.00000000E+00  0.00000000E+00
  0.00000000E+00  0.00000000E+00  0.00000000E+00
  0.00000000E+00  0.00000000E+00  0.00000000E+00
  0.00000000E+00  0.00000000E+00  0.00000000E+00
  0.00000000E+00  0.00000000E+00  0.00000000E+00
  0.00000000E+00  0.00000000E+00  0.00000000E+00
  0.00000000E+00  0.00000000E+00  0.00000000E+00
  0.00000000E+00  0.00000000E+00  0.00000000E+00
