B Ga N                                  
   1.00000000000000     
     9.5151999516849948    0.0000000000000000    0.0000000000000000
     4.7575999758424974    8.2404057957579742    0.0000000000000000
     0.0000000000000000    0.0000000000000000   15.4821229706844257
   B    Ga   N 
     4    50    54
Direct
  0.4552422172192863  0.4390455799391546  0.4948701604565144
  0.6669479640594815  0.3331926758311283  0.3372810103899511
  0.1207875390485498  0.1062729005495981  0.4950551667132146
  0.3341672265510098  0.9995830535638248  0.3382243669075180
  0.9990490857080374  0.0008875320221264  0.0031509389542705
  0.1147458510757104  0.1092937445360178  0.1729319000163727
  0.0039777622447872  0.0070847055472925  0.3386450747079266
  0.0031349400736644  0.0037632240570886  0.6588276870608070
  0.1098959197723204  0.1117187101877164  0.8340540786126311
  0.9990490674057781  0.3333967156031719  0.0031509389542705
  0.1109612646790907  0.4437063188220876  0.1697699918849125
  0.0039777439425279  0.3222708655412561  0.3386450747079266
  0.1188324345356051  0.4398848988900497  0.4979906918871606
  0.0031349217714052  0.3264351692025897  0.6588276870608070
  0.1122718652522678  0.4421425145313265  0.8307280157312533
  0.0010558018166478  0.6661387749094700  0.9996558616197504
  0.1109612463768315  0.7786657932510934  0.1697699918849125
  0.9995411544746702  0.6668960985804588  0.3328527349964929
  0.1188324162333458  0.7746160433266169  0.4979906918871606
  0.9999690186302814  0.6666821665026532  0.6653087302566689
  0.1122718469500086  0.7789189969686774  0.8307280157312533
  0.3338003898697437  0.9997664719044579  0.0005093659044277
  0.4401661924720983  0.1095984084119124  0.1745601312026892
  0.4366850713821009  0.1140241712677224  0.4953623771004203
  0.3267133788613990  0.0033099774086267  0.6625209798601475
  0.4439766219007808  0.1120473264204804  0.8307971667161240
  0.3338917954152194  0.3321584921746492  0.0031002762630976
  0.4480058961924627  0.4426637404525664  0.1729237089610152
  0.3391928518062812  0.3294049971707764  0.3379388161319810
  0.3376765601397551  0.3357655584621071  0.6590496340673724
  0.4435434998111845  0.4448949386432020  0.8343098595231524
  0.3338918320197379  0.6672830277865316  0.0031002762630976
  0.4401662107743576  0.7835687396090663  0.1745601312026892
  0.3391928884107998  0.6647354663993426  0.3379388161319810
  0.4366850896843602  0.7826240978432537  0.4953623771004203
  0.3376765967442736  0.6598911967745451  0.6590496340673724
  0.4439766402030401  0.7773093921718157  0.8307971667161240
  0.6653233049763401  0.0022715641239088  0.0027811635596038
  0.7748048646111698  0.1168129224599852  0.1751894735957862
  0.6593848027092832  0.0050277970469992  0.3341274409994810
  0.7728043986308393  0.1238106846478999  0.4947096010785970
  0.6667998214951325  0.0003683194474533  0.6625859052366607
  0.7787279545975281  0.1109136859291837  0.8308132370288988
  0.6675191258871394  0.3329070949172959  0.0009579168020650
  0.7748049001797099  0.4417155537672457  0.1751894735957862
  0.7728044341993794  0.4367182575596615  0.4947096010785970
  0.6604738967409673  0.3364297094903819  0.6623590848591832
  0.7787279901660611  0.4436917003116889  0.8308132370288988
  0.6653233222426209  0.6657384649237343  0.0027811635596038
  0.7775200113556338  0.7779066733745239  0.1671280214240554
  0.6593848199755641  0.6689207342677008  0.3341274409994810
  0.7791320513245878  0.7771006533900504  0.4978197082448688
  0.6667998387614134  0.6661651930813974  0.6625859052366607
  0.7766236118538714  0.7783548731254086  0.8332363295066969
  0.1135405316118110  0.1098964042679640  0.0453867842444637
  0.0001349878632908  0.0013181107537079  0.2122244616664801
  0.1405515134444286  0.0963909133516623  0.3859859156000525
  0.0168203251814347  0.0159444966212163  0.5293920528446847
  0.1097328856090769  0.1118002272693346  0.7087470048467708
  0.9992345750232019  0.9999034359237342  0.8756565854666434
  0.1108390320047050  0.4446600835022494  0.0431616490130295
  0.0001349695610315  0.3318802347163299  0.2122244616664801
  0.1101312668477092  0.4446331040537856  0.3736212760334610
  0.0168203068791755  0.3005685115306846  0.5293920528446847
  0.1133077394426607  0.4405749401267940  0.7020940253293091
  0.9992345567209426  0.3341953223863925  0.8756565854666434
  0.1108390137024458  0.7778342612453102  0.0431616490130295
  0.9992116586778010  0.6670608464788970  0.2079020620237273
  0.1101312485454500  0.7785690058507768  0.3736212760334610
  0.0014593795520526  0.6659369860417641  0.5396209001325900
  0.1133077211404014  0.7794506971828170  0.7020940253293091
  0.0014651851092893  0.6659340832631528  0.8721793085205789
  0.4427231254582438  0.1098937869283247  0.0464907904952696
  0.3293091472315979  0.0020120932235344  0.2307374312534236
  0.4281439443771191  0.0949722257588306  0.3696678363664745
  0.3021703159548608  0.0155815088618994  0.5355477218354636
  0.4427848843488107  0.1125057812759849  0.7026543658790914
  0.3341591000351087  0.9995871168217718  0.8738133996494284
  0.4466520962093483  0.4433406404441271  0.0452618116524661
  0.3335769643362028  0.3342559655938402  0.2118477667768843
  0.4725470149077466  0.4303931810949280  0.3848406986884356
  0.3533521819238956  0.3468586324726317  0.5297167684946089
  0.4433050000792349  0.4450141885091767  0.7088485532284707
  0.3332282756232559  0.3325728165885380  0.8756364645277799
  0.4427231437605030  0.7807164281065084  0.0464907904952696
  0.3335770009407213  0.6655003854463573  0.2118477667768843
  0.4281439626793784  0.8102171703571202  0.3696678363664745
  0.3533522185284141  0.6331225009798658  0.5297167684946089
  0.4427849026510700  0.7780426748682743  0.7026543658790914
  0.3332283122277744  0.6675322231646064  0.8756364645277799
  0.7765709508958949  0.1136473938687246  0.0467534110248167
  0.6658889667844434  0.9997040214481316  0.2091350297195405
  0.7610148836627175  0.1433977447512191  0.3685246249694956
  0.6660302718834998  0.0022339301244543  0.5357457851427441
  0.7796254173483135  0.1114512965208334  0.7026013416086698
  0.6658497829783627  0.0018086598476970  0.8746430794421016
  0.7765709864644350  0.4431149960737812  0.0467534110248167
  0.6621735979462287  0.3355798588877548  0.2304426817201417
  0.7610149192312576  0.4289207124244712  0.3685246249694956
  0.6350814829977338  0.3491259163619986  0.5357197497330617
  0.7796254529168536  0.4422566269692609  0.7026013416086698
  0.6676023033591107  0.3328655061813137  0.8741155210004266
  0.7780494688382547  0.7776419446332170  0.0408221611651669
  0.6658889840507243  0.6677403457914153  0.2091350297195405
  0.7768970078360482  0.7782181751343202  0.3731236707864554
  0.6660302891497807  0.6650691320160291  0.5357457851427441
  0.7765681275866143  0.7783826152590407  0.7060929125140660
  0.6658498002446436  0.6656748911979236  0.8746430794421016
 
  0.00000000E+00  0.00000000E+00  0.00000000E+00
  0.00000000E+00  0.00000000E+00  0.00000000E+00
  0.00000000E+00  0.00000000E+00  0.00000000E+00
  0.00000000E+00  0.00000000E+00  0.00000000E+00
  0.00000000E+00  0.00000000E+00  0.00000000E+00
  0.00000000E+00  0.00000000E+00  0.00000000E+00
  0.00000000E+00  0.00000000E+00  0.00000000E+00
  0.00000000E+00  0.00000000E+00  0.00000000E+00
  0.00000000E+00  0.00000000E+00  0.00000000E+00
  0.00000000E+00  0.00000000E+00  0.00000000E+00
  0.00000000E+00  0.00000000E+00  0.00000000E+00
  0.00000000E+00  0.00000000E+00  0.00000000E+00
  0.00000000E+00  0.00000000E+00  0.00000000E+00
  0.00000000E+00  0.00000000E+00  0.00000000E+00
  0.00000000E+00  0.00000000E+00  0.00000000E+00
  0.00000000E+00  0.00000000E+00  0.00000000E+00
  0.00000000E+00  0.00000000E+00  0.00000000E+00
  0.00000000E+00  0.00000000E+00  0.00000000E+00
  0.00000000E+00  0.00000000E+00  0.00000000E+00
  0.00000000E+00  0.00000000E+00  0.00000000E+00
  0.00000000E+00  0.00000000E+00  0.00000000E+00
  0.00000000E+00  0.00000000E+00  0.00000000E+00
  0.00000000E+00  0.00000000E+00  0.00000000E+00
  0.00000000E+00  0.00000000E+00  0.00000000E+00
  0.00000000E+00  0.00000000E+00  0.00000000E+00
  0.00000000E+00  0.00000000E+00  0.00000000E+00
  0.00000000E+00  0.00000000E+00  0.00000000E+00
  0.00000000E+00  0.00000000E+00  0.00000000E+00
  0.00000000E+00  0.00000000E+00  0.00000000E+00
  0.00000000E+00  0.00000000E+00  0.00000000E+00
  0.00000000E+00  0.00000000E+00  0.00000000E+00
  0.00000000E+00  0.00000000E+00  0.00000000E+00
  0.00000000E+00  0.00000000E+00  0.00000000E+00
  0.00000000E+00  0.00000000E+00  0.00000000E+00
  0.00000000E+00  0.00000000E+00  0.00000000E+00
  0.00000000E+00  0.00000000E+00  0.00000000E+00
  0.00000000E+00  0.00000000E+00  0.00000000E+00
  0.00000000E+00  0.00000000E+00  0.00000000E+00
  0.00000000E+00  0.00000000E+00  0.00000000E+00
  0.00000000E+00  0.00000000E+00  0.00000000E+00
  0.00000000E+00  0.00000000E+00  0.00000000E+00
  0.00000000E+00  0.00000000E+00  0.00000000E+00
  0.00000000E+00  0.00000000E+00  0.00000000E+00
  0.00000000E+00  0.00000000E+00  0.00000000E+00
  0.00000000E+00  0.00000000E+00  0.00000000E+00
  0.00000000E+00  0.00000000E+00  0.00000000E+00
  0.00000000E+00  0.00000000E+00  0.00000000E+00
  0.00000000E+00  0.00000000E+00  0.00000000E+00
  0.00000000E+00  0.00000000E+00  0.00000000E+00
  0.00000000E+00  0.00000000E+00  0.00000000E+00
  0.00000000E+00  0.00000000E+00  0.00000000E+00
  0.00000000E+00  0.00000000E+00  0.00000000E+00
  0.00000000E+00  0.00000000E+00  0.00000000E+00
  0.00000000E+00  0.00000000E+00  0.00000000E+00
  0.00000000E+00  0.00000000E+00  0.00000000E+00
  0.00000000E+00  0.00000000E+00  0.00000000E+00
  0.00000000E+00  0.00000000E+00  0.00000000E+00
  0.00000000E+00  0.00000000E+00  0.00000000E+00
  0.00000000E+00  0.00000000E+00  0.00000000E+00
  0.00000000E+00  0.00000000E+00  0.00000000E+00
  0.00000000E+00  0.00000000E+00  0.00000000E+00
  0.00000000E+00  0.00000000E+00  0.00000000E+00
  0.00000000E+00  0.00000000E+00  0.00000000E+00
  0.00000000E+00  0.00000000E+00  0.00000000E+00
  0.00000000E+00  0.00000000E+00  0.00000000E+00
  0.00000000E+00  0.00000000E+00  0.00000000E+00
  0.00000000E+00  0.00000000E+00  0.00000000E+00
  0.00000000E+00  0.00000000E+00  0.00000000E+00
  0.00000000E+00  0.00000000E+00  0.00000000E+00
  0.00000000E+00  0.00000000E+00  0.00000000E+00
  0.00000000E+00  0.00000000E+00  0.00000000E+00
  0.00000000E+00  0.00000000E+00  0.00000000E+00
  0.00000000E+00  0.00000000E+00  0.00000000E+00
  0.00000000E+00  0.00000000E+00  0.00000000E+00
  0.00000000E+00  0.00000000E+00  0.00000000E+00
  0.00000000E+00  0.00000000E+00  0.00000000E+00
  0.00000000E+00  0.00000000E+00  0.00000000E+00
  0.00000000E+00  0.00000000E+00  0.00000000E+00
  0.00000000E+00  0.00000000E+00  0.00000000E+00
  0.00000000E+00  0.00000000E+00  0.00000000E+00
  0.00000000E+00  0.00000000E+00  0.00000000E+00
  0.00000000E+00  0.00000000E+00  0.00000000E+00
  0.00000000E+00  0.00000000E+00  0.00000000E+00
  0.00000000E+00  0.00000000E+00  0.00000000E+00
  0.00000000E+00  0.00000000E+00  0.00000000E+00
  0.00000000E+00  0.00000000E+00  0.00000000E+00
  0.00000000E+00  0.00000000E+00  0.00000000E+00
  0.00000000E+00  0.00000000E+00  0.00000000E+00
  0.00000000E+00  0.00000000E+00  0.00000000E+00
  0.00000000E+00  0.00000000E+00  0.00000000E+00
  0.00000000E+00  0.00000000E+00  0.00000000E+00
  0.00000000E+00  0.00000000E+00  0.00000000E+00
  0.00000000E+00  0.00000000E+00  0.00000000E+00
  0.00000000E+00  0.00000000E+00  0.00000000E+00
  0.00000000E+00  0.00000000E+00  0.00000000E+00
  0.00000000E+00  0.00000000E+00  0.00000000E+00
  0.00000000E+00  0.00000000E+00  0.00000000E+00
  0.00000000E+00  0.00000000E+00  0.00000000E+00
  0.00000000E+00  0.00000000E+00  0.00000000E+00
  0.00000000E+00  0.00000000E+00  0.00000000E+00
  0.00000000E+00  0.00000000E+00  0.00000000E+00
  0.00000000E+00  0.00000000E+00  0.00000000E+00
  0.00000000E+00  0.00000000E+00  0.00000000E+00
  0.00000000E+00  0.00000000E+00  0.00000000E+00
  0.00000000E+00  0.00000000E+00  0.00000000E+00
  0.00000000E+00  0.00000000E+00  0.00000000E+00
  0.00000000E+00  0.00000000E+00  0.00000000E+00
  0.00000000E+00  0.00000000E+00  0.00000000E+00
