B Ga N                                  
   1.00000000000000     
     9.5839623872580297    0.0000000000000000    0.0000000000000000
     4.7919811936290149    8.2999558184063282    0.0000000000000000
     0.0000000000000000    0.0000000000000000   15.6094725441403774
   B    Ga   N 
     2    52    54
Direct
  0.4536678165147947  0.4398327802913968  0.4977893312162820
  0.6682173493977572  0.3325579831619905  0.3377939714917488
  0.9988079843387609  0.0004987812001005  0.0013491925535760
  0.1111236630105097  0.1111048385686146  0.1668457937779735
  0.9951311604064301  0.0065098837720754  0.3338121117731063
  0.1112403663339876  0.1110464869068792  0.4992099836625243
  0.9993031245245234  0.0004590346233044  0.6643805358759209
  0.1104258946005245  0.1114537227736108  0.8330031761219558
  0.9988079660365017  0.3340265677944672  0.0013491925535760
  0.1118802169565924  0.4440910795685653  0.1683811493422454
  0.9951311421041709  0.3316922891548373  0.3338121117731063
  0.1165501658119368  0.4457951971484420  0.4985847547759974
  0.9993031062222641  0.3335711741855079  0.6643805358759209
  0.1124024344258814  0.4434078686827974  0.8321392587732461
  0.0006718524163034  0.6663307496096422  0.0000700987343194
  0.1118801986543332  0.7773620802271211  0.1683811493422454
  0.9996332070852816  0.6668500722751531  0.3329282056439524
  0.1165501475096775  0.7709880137918930  0.4985847547759974
  0.0000671689412144  0.6666330913471867  0.6659346416702618
  0.1124024161236221  0.7775230736435930  0.8321392587732461
  0.3337951878604315  0.9997690729091175  0.9996467451491426
  0.4437370154027818  0.1121381424321015  0.1679308368995081
  0.3332883436850906  0.0000224949967844  0.3333998958135140
  0.4460467070716589  0.1157652283818393  0.4991397063409622
  0.3331952199505537  0.0000690568640564  0.6658108738033235
  0.4442758231041779  0.1124840588038367  0.8321352330755190
  0.3338339225277167  0.3335889236332790  0.0017062790133764
  0.4482425680298618  0.4425454045338668  0.1726203512222568
  0.3413856063063534  0.3346926856259955  0.3378397611734485
  0.3368728238962149  0.3366748943492794  0.6614210480731657
  0.4440715910716264  0.4446308930129845  0.8342360574974990
  0.3338339591322352  0.6659104692154116  0.0017062790133764
  0.4437370337050410  0.7774581826581937  0.1679308368995081
  0.3413856429108719  0.6572550234440513  0.3378397611734485
  0.4460467253739182  0.7715214050395787  0.4991397063409622
  0.3368728605007334  0.6597855971309130  0.6614210480731657
  0.4442758414064372  0.7765734585850552  0.8321352330755190
  0.6667067637926749  0.0012990238361184  0.0012983562185482
  0.7745443398316496  0.1166799155950997  0.1728394478833479
  0.6647802715398612  0.0068242768519298  0.3333183237506958
  0.7678050253657247  0.1226683116558505  0.4960915447666778
  0.6673110045299495  0.0002241255662767  0.6648477548437910
  0.7775183670412034  0.1118173190692531  0.8322473534725816
  0.6667635570411150  0.3332848793403045  0.0009004268775499
  0.7745443754001897  0.4421090854116514  0.1728394478833479
  0.7678050609342648  0.4428600038168256  0.4960915447666778
  0.6603833548655302  0.3364749804281004  0.6636101393835858
  0.7775184026097435  0.4439976547279443  0.8322473534725816
  0.6667067810589558  0.6653275463951971  0.0012983562185482
  0.7778102752399008  0.7777615414323975  0.1669911395018744
  0.6647802888061420  0.6617287856321923  0.3333183237506958
  0.7785951590122764  0.7773690995462061  0.4986267663511157
  0.6673110217962304  0.6657982039277570  0.6648477548437910
  0.7773312484536916  0.7780010548254950  0.8334258152903118
  0.1114132162168602  0.1109600619654429  0.0411107542034586
  0.9996196385937992  0.0006455056342745  0.2085088553898373
  0.1118202323136401  0.1107565539170565  0.3744250399666953
  0.9972744774828897  0.0006538855272851  0.5380885122978043
  0.1104254805756781  0.1114539297860304  0.7067446275938636
  0.9993603833126201  0.9998605316378928  0.8745574457767447
  0.1112349628361216  0.4443789133971308  0.0422140999505984
  0.9996196202915399  0.3330681891052620  0.2085088553898373
  0.1105609622191963  0.4438323419427164  0.3735920696960804
  0.9972744591806304  0.3354049703231610  0.5380885122978043
  0.1137699226087463  0.4425703044833682  0.7050258214554859
  0.9993603650103609  0.3341124183828228  0.8745574457767447
  0.1112349445338623  0.7777195005190265  0.0422140999505984
  0.9996971558429166  0.6668180978963392  0.2078465648780039
  0.1105609439169370  0.7789400725903590  0.3735920696960804
  0.0001211332184283  0.6666061092085798  0.5406830196079682
  0.1137699043064870  0.7769931496601643  0.7050258214554859
  0.0007485649587480  0.6662923933384235  0.8735243177464014
  0.4441673530795640  0.1111727234442341  0.0420350482083407
  0.3330785571061270  0.0001273882862662  0.2079668466281390
  0.4440941839637702  0.1108968705182747  0.3745031472375047
  0.3344740081719166  0.9994296627533714  0.5400801879819781
  0.4437917510619798  0.1136285722424333  0.7050714529453401
  0.3339329449313411  0.9997001943736592  0.8732653042083030
  0.4465705792032395  0.4433813989471815  0.0452203538890146
  0.3339905707833211  0.3338805280836468  0.2110962778132048
  0.4728528178314022  0.4302402796330966  0.3858070623021561
  0.3515050426610244  0.3491295666919640  0.5323995292102879
  0.4438757603944552  0.4447288083515701  0.7096905136236842
  0.3333842172822941  0.3334155131454182  0.8755081482738376
  0.4441673713818233  0.7779932639692717  0.0420350482083407
  0.3339906073878396  0.6654622165094324  0.2110962778132048
  0.4440942022660295  0.7783422860110321  0.3745031472375047
  0.3515050792655430  0.6326987060234046  0.5323995292102879
  0.4437917693642390  0.7759130171886639  0.7050714529453401
  0.3333842538868126  0.6665335849486809  0.8755081482738376
  0.7765391477234829  0.1135805056847516  0.0452040908215423
  0.6664259510062323  0.9999865090899220  0.2083387872017823
  0.7617064242895495  0.1437401622443417  0.3692980893647331
  0.6685617413499756  0.0003157797826105  0.5389163991893327
  0.7767750315916686  0.1133002493979163  0.7057285775571955
  0.6665533233381495  0.0008823592128451  0.8745552913152039
  0.7765391832920230  0.4432136874301591  0.0452040908215423
  0.6632855521729155  0.3350238817744042  0.2299654807972900
  0.7617064598580896  0.4278867543045095  0.3692980893647331
  0.6344041829470299  0.3494645663873541  0.5366810483804301
  0.7767750671602087  0.4432580598488158  0.7057285775571955
  0.6668277289028381  0.3332527934094500  0.8750780017565845
  0.7778349666467363  0.7777491957289797  0.0410862334316207
  0.6664259682725131  0.6669208739278289  0.2083387872017823
  0.7764477645608991  0.7784427967718983  0.3732634845536253
  0.6685617586162564  0.6644558128913971  0.5389163991893327
  0.7772485551361896  0.7780424014842495  0.7070863102866767
  0.6665533406044304  0.6658976514729886  0.8745552913152039
 
  0.00000000E+00  0.00000000E+00  0.00000000E+00
  0.00000000E+00  0.00000000E+00  0.00000000E+00
  0.00000000E+00  0.00000000E+00  0.00000000E+00
  0.00000000E+00  0.00000000E+00  0.00000000E+00
  0.00000000E+00  0.00000000E+00  0.00000000E+00
  0.00000000E+00  0.00000000E+00  0.00000000E+00
  0.00000000E+00  0.00000000E+00  0.00000000E+00
  0.00000000E+00  0.00000000E+00  0.00000000E+00
  0.00000000E+00  0.00000000E+00  0.00000000E+00
  0.00000000E+00  0.00000000E+00  0.00000000E+00
  0.00000000E+00  0.00000000E+00  0.00000000E+00
  0.00000000E+00  0.00000000E+00  0.00000000E+00
  0.00000000E+00  0.00000000E+00  0.00000000E+00
  0.00000000E+00  0.00000000E+00  0.00000000E+00
  0.00000000E+00  0.00000000E+00  0.00000000E+00
  0.00000000E+00  0.00000000E+00  0.00000000E+00
  0.00000000E+00  0.00000000E+00  0.00000000E+00
  0.00000000E+00  0.00000000E+00  0.00000000E+00
  0.00000000E+00  0.00000000E+00  0.00000000E+00
  0.00000000E+00  0.00000000E+00  0.00000000E+00
  0.00000000E+00  0.00000000E+00  0.00000000E+00
  0.00000000E+00  0.00000000E+00  0.00000000E+00
  0.00000000E+00  0.00000000E+00  0.00000000E+00
  0.00000000E+00  0.00000000E+00  0.00000000E+00
  0.00000000E+00  0.00000000E+00  0.00000000E+00
  0.00000000E+00  0.00000000E+00  0.00000000E+00
  0.00000000E+00  0.00000000E+00  0.00000000E+00
  0.00000000E+00  0.00000000E+00  0.00000000E+00
  0.00000000E+00  0.00000000E+00  0.00000000E+00
  0.00000000E+00  0.00000000E+00  0.00000000E+00
  0.00000000E+00  0.00000000E+00  0.00000000E+00
  0.00000000E+00  0.00000000E+00  0.00000000E+00
  0.00000000E+00  0.00000000E+00  0.00000000E+00
  0.00000000E+00  0.00000000E+00  0.00000000E+00
  0.00000000E+00  0.00000000E+00  0.00000000E+00
  0.00000000E+00  0.00000000E+00  0.00000000E+00
  0.00000000E+00  0.00000000E+00  0.00000000E+00
  0.00000000E+00  0.00000000E+00  0.00000000E+00
  0.00000000E+00  0.00000000E+00  0.00000000E+00
  0.00000000E+00  0.00000000E+00  0.00000000E+00
  0.00000000E+00  0.00000000E+00  0.00000000E+00
  0.00000000E+00  0.00000000E+00  0.00000000E+00
  0.00000000E+00  0.00000000E+00  0.00000000E+00
  0.00000000E+00  0.00000000E+00  0.00000000E+00
  0.00000000E+00  0.00000000E+00  0.00000000E+00
  0.00000000E+00  0.00000000E+00  0.00000000E+00
  0.00000000E+00  0.00000000E+00  0.00000000E+00
  0.00000000E+00  0.00000000E+00  0.00000000E+00
  0.00000000E+00  0.00000000E+00  0.00000000E+00
  0.00000000E+00  0.00000000E+00  0.00000000E+00
  0.00000000E+00  0.00000000E+00  0.00000000E+00
  0.00000000E+00  0.00000000E+00  0.00000000E+00
  0.00000000E+00  0.00000000E+00  0.00000000E+00
  0.00000000E+00  0.00000000E+00  0.00000000E+00
  0.00000000E+00  0.00000000E+00  0.00000000E+00
  0.00000000E+00  0.00000000E+00  0.00000000E+00
  0.00000000E+00  0.00000000E+00  0.00000000E+00
  0.00000000E+00  0.00000000E+00  0.00000000E+00
  0.00000000E+00  0.00000000E+00  0.00000000E+00
  0.00000000E+00  0.00000000E+00  0.00000000E+00
  0.00000000E+00  0.00000000E+00  0.00000000E+00
  0.00000000E+00  0.00000000E+00  0.00000000E+00
  0.00000000E+00  0.00000000E+00  0.00000000E+00
  0.00000000E+00  0.00000000E+00  0.00000000E+00
  0.00000000E+00  0.00000000E+00  0.00000000E+00
  0.00000000E+00  0.00000000E+00  0.00000000E+00
  0.00000000E+00  0.00000000E+00  0.00000000E+00
  0.00000000E+00  0.00000000E+00  0.00000000E+00
  0.00000000E+00  0.00000000E+00  0.00000000E+00
  0.00000000E+00  0.00000000E+00  0.00000000E+00
  0.00000000E+00  0.00000000E+00  0.00000000E+00
  0.00000000E+00  0.00000000E+00  0.00000000E+00
  0.00000000E+00  0.00000000E+00  0.00000000E+00
  0.00000000E+00  0.00000000E+00  0.00000000E+00
  0.00000000E+00  0.00000000E+00  0.00000000E+00
  0.00000000E+00  0.00000000E+00  0.00000000E+00
  0.00000000E+00  0.00000000E+00  0.00000000E+00
  0.00000000E+00  0.00000000E+00  0.00000000E+00
  0.00000000E+00  0.00000000E+00  0.00000000E+00
  0.00000000E+00  0.00000000E+00  0.00000000E+00
  0.00000000E+00  0.00000000E+00  0.00000000E+00
  0.00000000E+00  0.00000000E+00  0.00000000E+00
  0.00000000E+00  0.00000000E+00  0.00000000E+00
  0.00000000E+00  0.00000000E+00  0.00000000E+00
  0.00000000E+00  0.00000000E+00  0.00000000E+00
  0.00000000E+00  0.00000000E+00  0.00000000E+00
  0.00000000E+00  0.00000000E+00  0.00000000E+00
  0.00000000E+00  0.00000000E+00  0.00000000E+00
  0.00000000E+00  0.00000000E+00  0.00000000E+00
  0.00000000E+00  0.00000000E+00  0.00000000E+00
  0.00000000E+00  0.00000000E+00  0.00000000E+00
  0.00000000E+00  0.00000000E+00  0.00000000E+00
  0.00000000E+00  0.00000000E+00  0.00000000E+00
  0.00000000E+00  0.00000000E+00  0.00000000E+00
  0.00000000E+00  0.00000000E+00  0.00000000E+00
  0.00000000E+00  0.00000000E+00  0.00000000E+00
  0.00000000E+00  0.00000000E+00  0.00000000E+00
  0.00000000E+00  0.00000000E+00  0.00000000E+00
  0.00000000E+00  0.00000000E+00  0.00000000E+00
  0.00000000E+00  0.00000000E+00  0.00000000E+00
  0.00000000E+00  0.00000000E+00  0.00000000E+00
  0.00000000E+00  0.00000000E+00  0.00000000E+00
  0.00000000E+00  0.00000000E+00  0.00000000E+00
  0.00000000E+00  0.00000000E+00  0.00000000E+00
  0.00000000E+00  0.00000000E+00  0.00000000E+00
  0.00000000E+00  0.00000000E+00  0.00000000E+00
  0.00000000E+00  0.00000000E+00  0.00000000E+00
  0.00000000E+00  0.00000000E+00  0.00000000E+00
