B Ga N                                  
   1.00000000000000     
     9.5737230066372074    0.0000000000000000    0.0000000000000000
     4.7868615033186037    8.2910882536844905    0.0000000000000000
     0.0000000000000000    0.0000000000000000   15.5097533052901362
   B    Ga   N 
     4    50    54
Direct
  0.6254845306923187  0.2971576389093045  0.3249321800754359
  0.3412354823864376  0.3175289993132679  0.3275008630746683
  0.0773577944845130  0.2971576389093045  0.3249321800754359
  0.6589227288692001  0.6821545781754708  0.3362760388743737
  0.4470098950615906  0.4381442884431337  0.4923278369750221
  0.9997923447587240  0.0004153104825591  0.0012119779624200
  0.1119890292002594  0.1110774695958057  0.1685163501534319
  0.9910384336614584  0.0179231326770832  0.3311538966159802
  0.1076896333419270  0.1215876517448677  0.4961466194053727
  0.9985149678290952  0.0029700643418167  0.6628265618836977
  0.1106115693786052  0.1126008357040931  0.8326049654797743
  0.9935310533938519  0.3364222535488750  0.0041115114833090
  0.1154226293039216  0.4400099134802673  0.1735036671140548
  0.1148458414738371  0.4381442884431337  0.4923278369750221
  0.9961592252673412  0.3377501449644100  0.6629849841313344
  0.1102696604349234  0.4444480460982589  0.8330750319337383
  0.0005311948713711  0.6639850334432396  0.0031716999663303
  0.1115900701386039  0.7768198477515114  0.1685504776196467
  0.9973089836617959  0.6570949017908347  0.3324332032246033
  0.1100038539184354  0.7799922801918555  0.4959616007536454
  0.9996543106397624  0.6664006178640633  0.6621339329550224
  0.1112747573983484  0.7774504732320153  0.8324052834036095
  0.3344044145074321  0.9979598829658229  0.0021478972317652
  0.4446353520162134  0.1107292480824142  0.1686903874204049
  0.3401246194847616  0.0006570343537717  0.3306913670645457
  0.4410530649704043  0.1178938221740395  0.4944571782535903
  0.3324486046673130  0.0016948311680949  0.6635098910219099
  0.4447605188320125  0.1104789144508302  0.8334349364653946
  0.3338123270375277  0.3323753100110807  0.0013237962843888
  0.4445674821943726  0.4400099134802673  0.1735036671140548
  0.3325674748609373  0.3348650143642544  0.6653212590804856
  0.4452823184453862  0.4444480460982589  0.8330750319337383
  0.3354838086352387  0.6639850334432396  0.0031716999663303
  0.4532523022379564  0.7703174268303599  0.1704133593341695
  0.3455961514972117  0.6570949017908347  0.3324332032246033
  0.4485630775657725  0.7780687070854668  0.4960596493625857
  0.3339451084460165  0.6664006178640633  0.6621339329550224
  0.4443352132351137  0.7774175328106523  0.8332809234580409
  0.6676357035627234  0.9979598829658229  0.0021478972317652
  0.7769334533187831  0.1110774695958057  0.1685163501534319
  0.6592183471974451  0.0006570343537717  0.3306913670645457
  0.7707226670280534  0.1215876517448677  0.4961466194053727
  0.6658565652005777  0.0016948311680949  0.6635098910219099
  0.7767875470321570  0.1126008357040931  0.8326049654797743
  0.6700466571434092  0.3364222535488750  0.0041115114833090
  0.7802785801215606  0.4394428636994547  0.2436767065118062
  0.7718039923342204  0.4563920392741423  0.4848821416907825
  0.6660905938543848  0.3377501449644100  0.6629849841313344
  0.7779098726674789  0.4441802786076252  0.8344790515622833
  0.6712553043909963  0.6574894271318641  0.0032028831084574
  0.7764302589604029  0.7703174268303599  0.1704133593341695
  0.7733682033774727  0.7780687070854668  0.4960596493625857
  0.6661906007416007  0.6676188344306553  0.6658604970966095
  0.7782472419829531  0.7774175328106523  0.8332809234580409
  0.1111681639508220  0.1117219810779702  0.0434737959875093
  0.9992365310963436  0.0015269378073199  0.2076372764435774
  0.1046553795721437  0.1429417026709316  0.3678785393924002
  0.9971556347719925  0.0056887304560149  0.5332689814616955
  0.1096313524888188  0.1138894425676966  0.7045533985615151
  0.9998942148472167  0.0002115703055665  0.8740250017062507
  0.1137338275963842  0.4405022619057632  0.0470451721234966
  0.0217712547266729  0.3211430829242730  0.2324565867464798
  0.1444369442418747  0.4042561658901747  0.3621113876947391
  0.9926695412803639  0.3414940654647012  0.5358067019262904
  0.1099491305180109  0.4459394457046741  0.7058166665190626
  0.0007686639917779  0.3332725218350276  0.8755314999256925
  0.1113815014003237  0.7772369852280789  0.0426394136190495
  0.0008052081792087  0.6641941761847292  0.2084559408714313
  0.1093253548581572  0.7813492783123976  0.3701689560376877
  0.0002085521301680  0.6646206204498029  0.5329896372893188
  0.1104661798618523  0.7790676283050217  0.7035188518282496
  0.0006320556275341  0.6661800351140101  0.8756057740523673
  0.4444219623563299  0.1111560274021954  0.0429934651990678
  0.3351479435383666  0.9963351066643966  0.2065403748379637
  0.4311778870387855  0.1376441780372843  0.3657464218312327
  0.3315126568918814  0.0035055936507788  0.5353752740182145
  0.4440972975770237  0.1118053569608009  0.7061177412107611
  0.3329058646118170  0.9998376737945733  0.8750305107391725
  0.4457639354764140  0.4405022619057632  0.0470451721234966
  0.3365760650382228  0.3268478340096905  0.2241072906557235
  0.4513069148465121  0.4042561658901747  0.3621113876947391
  0.3321523661202903  0.3356952318455484  0.5391202935825774
  0.4441114487558764  0.4459394457046741  0.7058166665190626
  0.3331614550887139  0.3336770539087155  0.8746986816747793
  0.4473670475664662  0.7751202714143588  0.0440978392571054
  0.3350006525859044  0.6641941761847292  0.2084559408714313
  0.4656616839299375  0.7749417657797295  0.3692692876906634
  0.3351708643698714  0.6646206204498029  0.5329896372893188
  0.4420675745023743  0.7795588238802083  0.7056378256246774
  0.3331879462083052  0.6661800351140101  0.8756057740523673
  0.7771098070860560  0.1117219810779702  0.0434737959875093
  0.6685169508332081  0.9963351066643966  0.2065403748379637
  0.7524028698717729  0.1429417026709316  0.3678785393924002
  0.6649817504933182  0.0035055936507788  0.5353752740182145
  0.7764791570583327  0.1138894425676966  0.7045533985615151
  0.6672564626295880  0.9998376737945733  0.8750305107391725
  0.7786871464238772  0.4426257310948216  0.0477563076890490
  0.6570856264351903  0.3211430829242730  0.2324565867464798
  0.7467888233737838  0.5064223771950225  0.3649772676177108
  0.6658363573410711  0.3414940654647012  0.5358067019262904
  0.7770221021048229  0.4459558197329443  0.7074972066467566
  0.6659587782593377  0.3332725218350276  0.8755314999256925
  0.7775126690478942  0.7751202714143588  0.0440978392571054
  0.6625174305595394  0.6749651747947922  0.2298642991825730
  0.7593965383190522  0.7749417657797295  0.3692692876906634
  0.6651892030003239  0.6696216299132161  0.5412141568093602
  0.7783735896461366  0.7795588238802083  0.7056378256246774
  0.6663573977409882  0.6672852404318874  0.8745674315507799
 
  0.00000000E+00  0.00000000E+00  0.00000000E+00
  0.00000000E+00  0.00000000E+00  0.00000000E+00
  0.00000000E+00  0.00000000E+00  0.00000000E+00
  0.00000000E+00  0.00000000E+00  0.00000000E+00
  0.00000000E+00  0.00000000E+00  0.00000000E+00
  0.00000000E+00  0.00000000E+00  0.00000000E+00
  0.00000000E+00  0.00000000E+00  0.00000000E+00
  0.00000000E+00  0.00000000E+00  0.00000000E+00
  0.00000000E+00  0.00000000E+00  0.00000000E+00
  0.00000000E+00  0.00000000E+00  0.00000000E+00
  0.00000000E+00  0.00000000E+00  0.00000000E+00
  0.00000000E+00  0.00000000E+00  0.00000000E+00
  0.00000000E+00  0.00000000E+00  0.00000000E+00
  0.00000000E+00  0.00000000E+00  0.00000000E+00
  0.00000000E+00  0.00000000E+00  0.00000000E+00
  0.00000000E+00  0.00000000E+00  0.00000000E+00
  0.00000000E+00  0.00000000E+00  0.00000000E+00
  0.00000000E+00  0.00000000E+00  0.00000000E+00
  0.00000000E+00  0.00000000E+00  0.00000000E+00
  0.00000000E+00  0.00000000E+00  0.00000000E+00
  0.00000000E+00  0.00000000E+00  0.00000000E+00
  0.00000000E+00  0.00000000E+00  0.00000000E+00
  0.00000000E+00  0.00000000E+00  0.00000000E+00
  0.00000000E+00  0.00000000E+00  0.00000000E+00
  0.00000000E+00  0.00000000E+00  0.00000000E+00
  0.00000000E+00  0.00000000E+00  0.00000000E+00
  0.00000000E+00  0.00000000E+00  0.00000000E+00
  0.00000000E+00  0.00000000E+00  0.00000000E+00
  0.00000000E+00  0.00000000E+00  0.00000000E+00
  0.00000000E+00  0.00000000E+00  0.00000000E+00
  0.00000000E+00  0.00000000E+00  0.00000000E+00
  0.00000000E+00  0.00000000E+00  0.00000000E+00
  0.00000000E+00  0.00000000E+00  0.00000000E+00
  0.00000000E+00  0.00000000E+00  0.00000000E+00
  0.00000000E+00  0.00000000E+00  0.00000000E+00
  0.00000000E+00  0.00000000E+00  0.00000000E+00
  0.00000000E+00  0.00000000E+00  0.00000000E+00
  0.00000000E+00  0.00000000E+00  0.00000000E+00
  0.00000000E+00  0.00000000E+00  0.00000000E+00
  0.00000000E+00  0.00000000E+00  0.00000000E+00
  0.00000000E+00  0.00000000E+00  0.00000000E+00
  0.00000000E+00  0.00000000E+00  0.00000000E+00
  0.00000000E+00  0.00000000E+00  0.00000000E+00
  0.00000000E+00  0.00000000E+00  0.00000000E+00
  0.00000000E+00  0.00000000E+00  0.00000000E+00
  0.00000000E+00  0.00000000E+00  0.00000000E+00
  0.00000000E+00  0.00000000E+00  0.00000000E+00
  0.00000000E+00  0.00000000E+00  0.00000000E+00
  0.00000000E+00  0.00000000E+00  0.00000000E+00
  0.00000000E+00  0.00000000E+00  0.00000000E+00
  0.00000000E+00  0.00000000E+00  0.00000000E+00
  0.00000000E+00  0.00000000E+00  0.00000000E+00
  0.00000000E+00  0.00000000E+00  0.00000000E+00
  0.00000000E+00  0.00000000E+00  0.00000000E+00
  0.00000000E+00  0.00000000E+00  0.00000000E+00
  0.00000000E+00  0.00000000E+00  0.00000000E+00
  0.00000000E+00  0.00000000E+00  0.00000000E+00
  0.00000000E+00  0.00000000E+00  0.00000000E+00
  0.00000000E+00  0.00000000E+00  0.00000000E+00
  0.00000000E+00  0.00000000E+00  0.00000000E+00
  0.00000000E+00  0.00000000E+00  0.00000000E+00
  0.00000000E+00  0.00000000E+00  0.00000000E+00
  0.00000000E+00  0.00000000E+00  0.00000000E+00
  0.00000000E+00  0.00000000E+00  0.00000000E+00
  0.00000000E+00  0.00000000E+00  0.00000000E+00
  0.00000000E+00  0.00000000E+00  0.00000000E+00
  0.00000000E+00  0.00000000E+00  0.00000000E+00
  0.00000000E+00  0.00000000E+00  0.00000000E+00
  0.00000000E+00  0.00000000E+00  0.00000000E+00
  0.00000000E+00  0.00000000E+00  0.00000000E+00
  0.00000000E+00  0.00000000E+00  0.00000000E+00
  0.00000000E+00  0.00000000E+00  0.00000000E+00
  0.00000000E+00  0.00000000E+00  0.00000000E+00
  0.00000000E+00  0.00000000E+00  0.00000000E+00
  0.00000000E+00  0.00000000E+00  0.00000000E+00
  0.00000000E+00  0.00000000E+00  0.00000000E+00
  0.00000000E+00  0.00000000E+00  0.00000000E+00
  0.00000000E+00  0.00000000E+00  0.00000000E+00
  0.00000000E+00  0.00000000E+00  0.00000000E+00
  0.00000000E+00  0.00000000E+00  0.00000000E+00
  0.00000000E+00  0.00000000E+00  0.00000000E+00
  0.00000000E+00  0.00000000E+00  0.00000000E+00
  0.00000000E+00  0.00000000E+00  0.00000000E+00
  0.00000000E+00  0.00000000E+00  0.00000000E+00
  0.00000000E+00  0.00000000E+00  0.00000000E+00
  0.00000000E+00  0.00000000E+00  0.00000000E+00
  0.00000000E+00  0.00000000E+00  0.00000000E+00
  0.00000000E+00  0.00000000E+00  0.00000000E+00
  0.00000000E+00  0.00000000E+00  0.00000000E+00
  0.00000000E+00  0.00000000E+00  0.00000000E+00
  0.00000000E+00  0.00000000E+00  0.00000000E+00
  0.00000000E+00  0.00000000E+00  0.00000000E+00
  0.00000000E+00  0.00000000E+00  0.00000000E+00
  0.00000000E+00  0.00000000E+00  0.00000000E+00
  0.00000000E+00  0.00000000E+00  0.00000000E+00
  0.00000000E+00  0.00000000E+00  0.00000000E+00
  0.00000000E+00  0.00000000E+00  0.00000000E+00
  0.00000000E+00  0.00000000E+00  0.00000000E+00
  0.00000000E+00  0.00000000E+00  0.00000000E+00
  0.00000000E+00  0.00000000E+00  0.00000000E+00
  0.00000000E+00  0.00000000E+00  0.00000000E+00
  0.00000000E+00  0.00000000E+00  0.00000000E+00
  0.00000000E+00  0.00000000E+00  0.00000000E+00
  0.00000000E+00  0.00000000E+00  0.00000000E+00
  0.00000000E+00  0.00000000E+00  0.00000000E+00
  0.00000000E+00  0.00000000E+00  0.00000000E+00
  0.00000000E+00  0.00000000E+00  0.00000000E+00
  0.00000000E+00  0.00000000E+00  0.00000000E+00
