B Ga N                                  
   1.00000000000000     
     9.5460328448903216    0.0000000000000000    0.0000000000000000
     4.7730164224451608    8.2671078675125642    0.0000000000000000
     0.0000000000000000    0.0000000000000000   15.5504586435785903
   B    Ga   N 
     3    51    54
Direct
  0.1117467632302436  0.1107473068030274  0.5001495573701575
  0.1102123569216289  0.7783677066846977  0.8315899646753167
  0.7772256784636440  0.7787327171066565  0.5000386270589203
  0.0024175975466818  0.9933969457764604  0.9962440169219562
  0.1105073598386852  0.1106661311324970  0.1655265109027937
  0.0021759632059499  0.0025741397343921  0.3386189957695152
  0.0057207313946748  0.9982204041460818  0.6670052829175361
  0.1124462103600834  0.1045626541196540  0.8340574951040836
  0.9991216041451807  0.3347442319251144  0.9991871178478817
  0.1094312133972934  0.4459337856775321  0.1680994955626147
  0.0028417900238935  0.3282049849854545  0.3382596447836832
  0.1062274112660262  0.4429561737729486  0.5008597625426532
  0.0030881986609401  0.3269910153018145  0.6625339970653954
  0.1114551490123290  0.4503644188996958  0.8302982364977680
  0.0038283009665534  0.6693070554569474  0.9962498053307627
  0.1099038806018484  0.7785112871536981  0.1701367257283195
  0.9954381803388515  0.6686474409826317  0.3392704080446478
  0.1058359323601508  0.7848986312382991  0.5001638810592297
  0.9960675324962551  0.6724264577309995  0.6667414875445417
  0.3345240395640587  0.9995309820269469  0.9997868929927591
  0.4448729679566128  0.1100551843079316  0.1695105399096803
  0.3281584690038244  0.0018739146872875  0.3382698279266307
  0.4420024041900987  0.1065365182004925  0.4993030718711182
  0.3268588913562809  0.0034067922712424  0.6622695691507730
  0.4450340362189351  0.1099998225395424  0.8302892731861462
  0.3327951530462769  0.3325201475555701  0.9995403930819293
  0.4439957337874105  0.4455027183932501  0.1649801539575506
  0.3331889782877724  0.3341036969408790  0.3337759245077834
  0.4434476550004405  0.4457690617684378  0.5004271508635085
  0.3337683662023352  0.3332458989930061  0.6654416355010966
  0.4380343536886215  0.4493824978720227  0.8330189982390408
  0.3267908418818806  0.6708710125639925  0.9961632664684714
  0.4444977397448753  0.7778852341979956  0.1681395570827107
  0.3338055586247890  0.6661713282352721  0.3340368634690449
  0.4410523498157559  0.7844285480947946  0.5010940357545053
  0.3288794656900933  0.6685515392123662  0.6705480246880313
  0.4386338386875508  0.7796799834189230  0.8303288965986795
  0.6661461903431558  0.0008288055341552  0.9998442512329575
  0.7794539565003760  0.1096574972837132  0.1680868425577913
  0.6696843407797317  0.9950730585949970  0.3388698621025270
  0.7854664990794760  0.1061820047932969  0.5008527712144968
  0.6696913519025713  0.9931843685862134  0.6617963043134338
  0.7836155213697111  0.1032718789016300  0.8302091536974032
  0.6681678603975314  0.3327773278369293  0.9989002894673646
  0.7783768318216033  0.4448605902473091  0.1690495955900033
  0.6660571317127761  0.3333444554741263  0.3338148167510511
  0.7848735696661961  0.4419779427947574  0.4997770246866011
  0.6663733640850324  0.3334114894239519  0.6658838326965650
  0.7783611933705998  0.4450381433252275  0.8300990798670043
  0.6663407053535622  0.6659933151566335  0.9992528175420290
  0.7788168708103669  0.7771531466397974  0.1660944437758616
  0.6688630944757676  0.6693144995242477  0.3390588675735273
  0.6702074792843717  0.6697897322378878  0.6622282598144977
  0.7829696787431430  0.7792091929058742  0.8337114839999558
  0.1098384051179693  0.1101185067165744  0.0388034041127696
  0.0011351387831482  0.0016152664977511  0.2117461542278676
  0.1108785287237808  0.1107724024962593  0.3936785635403339
  0.0168360377926504  0.0143110317158062  0.5376213751456476
  0.1112539460256912  0.1114274443874237  0.7100144079682238
  0.0153801876271444  0.9675459727001439  0.8676535133888166
  0.1095636786231822  0.4470025291372792  0.0405933271444141
  0.0018387944898137  0.3305002567638127  0.2107746311772445
  0.1112846510328751  0.4441119327686280  0.3756571306856671
  0.0163120116186022  0.3006667754000532  0.5353453351121047
  0.1091403035679477  0.4456458496003961  0.7035062703338255
  0.0004786204245377  0.3341267820302605  0.8729113427045689
  0.1107682631154319  0.7779146187985546  0.0445477032653727
  0.9974948980637564  0.6677163074746417  0.2120212078491832
  0.1114874228743901  0.7777549668250572  0.3752839343116605
  0.9696018217181290  0.6836187978135584  0.5369783056597583
  0.1096880044948136  0.7786745840695133  0.7229241349520876
  0.0168840840792868  0.6822959959625052  0.8676323668794126
  0.4446445727817405  0.1107596732593876  0.0428356389434015
  0.3303805320380349  0.0009004822553820  0.2108542478589399
  0.4440928912671041  0.1111851419403109  0.3743961184920437
  0.3007886914144109  0.0165119635113626  0.5351886974373699
  0.4456591777660819  0.1086915309046503  0.7033368929997152
  0.3347264531279777  0.9996888713812879  0.8740326914156853
  0.4435298836179058  0.4465910763843226  0.0380761621307215
  0.3331641729832384  0.3343893263603803  0.2077044025679413
  0.4442589227102189  0.4447742075186198  0.3751148185933246
  0.3334103821943302  0.3325946769652219  0.5402973297875917
  0.4446991024784523  0.4439405329861188  0.7077129993592166
  0.3328039868685906  0.3320659445276775  0.8731116917688482
  0.4435993984718394  0.7767673343197998  0.0406715319462165
  0.3338381125932983  0.6660925839913503  0.2085440012703259
  0.4440668530979863  0.7775144547202544  0.3759092136487041
  0.3299948021336121  0.6683019300557760  0.5437646819060689
  0.4455957912478752  0.7792038526902090  0.7035733545410068
  0.3010745058040527  0.6838426899199348  0.8669500609854950
  0.7802538002778761  0.1096946621626032  0.0406000897234406
  0.6686236448079015  0.9972939190705503  0.2110542997671416
  0.7779078169381179  0.1113937505822022  0.3756607970168773
  0.6818305708673336  0.9686540563809132  0.5344834080696543
  0.7789297141594389  0.1082537707809905  0.7034480398150009
  0.6656429412561451  0.0013403153903937  0.8740223641483809
  0.7779104119395726  0.4446720964387154  0.0423387354638365
  0.6658562399539676  0.3332850146242379  0.2077163487606057
  0.7779443304987979  0.4440289435211255  0.3747284795313206
  0.6668600686787229  0.3334717585292069  0.5404941379954593
  0.7789946980592148  0.4455806207311710  0.7032763165672549
  0.6679925294126861  0.3318439208272252  0.8719896044636286
  0.7800550743181489  0.7765105374341630  0.0391735930747359
  0.6675263002966929  0.6684134505406263  0.2111615822495878
  0.7782724050632197  0.7775778111061555  0.3937432920849133
  0.6824673300308035  0.6824430377240489  0.5347353307222562
  0.7775522054946507  0.7779381454946872  0.7097529637148625
  0.6656876860835439  0.6671331943248902  0.8729453375253442
 
  0.00000000E+00  0.00000000E+00  0.00000000E+00
  0.00000000E+00  0.00000000E+00  0.00000000E+00
  0.00000000E+00  0.00000000E+00  0.00000000E+00
  0.00000000E+00  0.00000000E+00  0.00000000E+00
  0.00000000E+00  0.00000000E+00  0.00000000E+00
  0.00000000E+00  0.00000000E+00  0.00000000E+00
  0.00000000E+00  0.00000000E+00  0.00000000E+00
  0.00000000E+00  0.00000000E+00  0.00000000E+00
  0.00000000E+00  0.00000000E+00  0.00000000E+00
  0.00000000E+00  0.00000000E+00  0.00000000E+00
  0.00000000E+00  0.00000000E+00  0.00000000E+00
  0.00000000E+00  0.00000000E+00  0.00000000E+00
  0.00000000E+00  0.00000000E+00  0.00000000E+00
  0.00000000E+00  0.00000000E+00  0.00000000E+00
  0.00000000E+00  0.00000000E+00  0.00000000E+00
  0.00000000E+00  0.00000000E+00  0.00000000E+00
  0.00000000E+00  0.00000000E+00  0.00000000E+00
  0.00000000E+00  0.00000000E+00  0.00000000E+00
  0.00000000E+00  0.00000000E+00  0.00000000E+00
  0.00000000E+00  0.00000000E+00  0.00000000E+00
  0.00000000E+00  0.00000000E+00  0.00000000E+00
  0.00000000E+00  0.00000000E+00  0.00000000E+00
  0.00000000E+00  0.00000000E+00  0.00000000E+00
  0.00000000E+00  0.00000000E+00  0.00000000E+00
  0.00000000E+00  0.00000000E+00  0.00000000E+00
  0.00000000E+00  0.00000000E+00  0.00000000E+00
  0.00000000E+00  0.00000000E+00  0.00000000E+00
  0.00000000E+00  0.00000000E+00  0.00000000E+00
  0.00000000E+00  0.00000000E+00  0.00000000E+00
  0.00000000E+00  0.00000000E+00  0.00000000E+00
  0.00000000E+00  0.00000000E+00  0.00000000E+00
  0.00000000E+00  0.00000000E+00  0.00000000E+00
  0.00000000E+00  0.00000000E+00  0.00000000E+00
  0.00000000E+00  0.00000000E+00  0.00000000E+00
  0.00000000E+00  0.00000000E+00  0.00000000E+00
  0.00000000E+00  0.00000000E+00  0.00000000E+00
  0.00000000E+00  0.00000000E+00  0.00000000E+00
  0.00000000E+00  0.00000000E+00  0.00000000E+00
  0.00000000E+00  0.00000000E+00  0.00000000E+00
  0.00000000E+00  0.00000000E+00  0.00000000E+00
  0.00000000E+00  0.00000000E+00  0.00000000E+00
  0.00000000E+00  0.00000000E+00  0.00000000E+00
  0.00000000E+00  0.00000000E+00  0.00000000E+00
  0.00000000E+00  0.00000000E+00  0.00000000E+00
  0.00000000E+00  0.00000000E+00  0.00000000E+00
  0.00000000E+00  0.00000000E+00  0.00000000E+00
  0.00000000E+00  0.00000000E+00  0.00000000E+00
  0.00000000E+00  0.00000000E+00  0.00000000E+00
  0.00000000E+00  0.00000000E+00  0.00000000E+00
  0.00000000E+00  0.00000000E+00  0.00000000E+00
  0.00000000E+00  0.00000000E+00  0.00000000E+00
  0.00000000E+00  0.00000000E+00  0.00000000E+00
  0.00000000E+00  0.00000000E+00  0.00000000E+00
  0.00000000E+00  0.00000000E+00  0.00000000E+00
  0.00000000E+00  0.00000000E+00  0.00000000E+00
  0.00000000E+00  0.00000000E+00  0.00000000E+00
  0.00000000E+00  0.00000000E+00  0.00000000E+00
  0.00000000E+00  0.00000000E+00  0.00000000E+00
  0.00000000E+00  0.00000000E+00  0.00000000E+00
  0.00000000E+00  0.00000000E+00  0.00000000E+00
  0.00000000E+00  0.00000000E+00  0.00000000E+00
  0.00000000E+00  0.00000000E+00  0.00000000E+00
  0.00000000E+00  0.00000000E+00  0.00000000E+00
  0.00000000E+00  0.00000000E+00  0.00000000E+00
  0.00000000E+00  0.00000000E+00  0.00000000E+00
  0.00000000E+00  0.00000000E+00  0.00000000E+00
  0.00000000E+00  0.00000000E+00  0.00000000E+00
  0.00000000E+00  0.00000000E+00  0.00000000E+00
  0.00000000E+00  0.00000000E+00  0.00000000E+00
  0.00000000E+00  0.00000000E+00  0.00000000E+00
  0.00000000E+00  0.00000000E+00  0.00000000E+00
  0.00000000E+00  0.00000000E+00  0.00000000E+00
  0.00000000E+00  0.00000000E+00  0.00000000E+00
  0.00000000E+00  0.00000000E+00  0.00000000E+00
  0.00000000E+00  0.00000000E+00  0.00000000E+00
  0.00000000E+00  0.00000000E+00  0.00000000E+00
  0.00000000E+00  0.00000000E+00  0.00000000E+00
  0.00000000E+00  0.00000000E+00  0.00000000E+00
  0.00000000E+00  0.00000000E+00  0.00000000E+00
  0.00000000E+00  0.00000000E+00  0.00000000E+00
  0.00000000E+00  0.00000000E+00  0.00000000E+00
  0.00000000E+00  0.00000000E+00  0.00000000E+00
  0.00000000E+00  0.00000000E+00  0.00000000E+00
  0.00000000E+00  0.00000000E+00  0.00000000E+00
  0.00000000E+00  0.00000000E+00  0.00000000E+00
  0.00000000E+00  0.00000000E+00  0.00000000E+00
  0.00000000E+00  0.00000000E+00  0.00000000E+00
  0.00000000E+00  0.00000000E+00  0.00000000E+00
  0.00000000E+00  0.00000000E+00  0.00000000E+00
  0.00000000E+00  0.00000000E+00  0.00000000E+00
  0.00000000E+00  0.00000000E+00  0.00000000E+00
  0.00000000E+00  0.00000000E+00  0.00000000E+00
  0.00000000E+00  0.00000000E+00  0.00000000E+00
  0.00000000E+00  0.00000000E+00  0.00000000E+00
  0.00000000E+00  0.00000000E+00  0.00000000E+00
  0.00000000E+00  0.00000000E+00  0.00000000E+00
  0.00000000E+00  0.00000000E+00  0.00000000E+00
  0.00000000E+00  0.00000000E+00  0.00000000E+00
  0.00000000E+00  0.00000000E+00  0.00000000E+00
  0.00000000E+00  0.00000000E+00  0.00000000E+00
  0.00000000E+00  0.00000000E+00  0.00000000E+00
  0.00000000E+00  0.00000000E+00  0.00000000E+00
  0.00000000E+00  0.00000000E+00  0.00000000E+00
  0.00000000E+00  0.00000000E+00  0.00000000E+00
  0.00000000E+00  0.00000000E+00  0.00000000E+00
  0.00000000E+00  0.00000000E+00  0.00000000E+00
  0.00000000E+00  0.00000000E+00  0.00000000E+00
  0.00000000E+00  0.00000000E+00  0.00000000E+00
