B Ga N                                  
   1.00000000000000     
     9.5088639137486783    0.0000000000000000    0.0000000000000000
     4.7544319568743392    8.2349186253361566    0.0000000000000000
     0.0000000000000000    0.0000000000000000   15.4920299769442398
   B    Ga   N 
     4    50    54
Direct
  0.1117611692988092  0.1107247438299765  0.5005177921730066
  0.1101929675624973  0.7783568269349530  0.8317046962632517
  0.7776029095131634  0.7780956502786154  0.5004653261314758
  0.6671350643638263  0.0000847354756672  0.9988912882467247
  0.9971701608172836  0.9923110903889807  0.9959638066152863
  0.1104160952494766  0.1107883125720619  0.1646425147814554
  0.0012783368838569  0.0032207385296275  0.3372849152018134
  0.0045744746019665  0.9984793319986309  0.6683113659896662
  0.1122161873040284  0.1046560199184867  0.8346508090066180
  0.9991040935821260  0.3347155331746379  0.9987361764808185
  0.1091306963289611  0.4459097662529246  0.1671930731328715
  0.0028726837933988  0.3280944040751095  0.3379373884121932
  0.1064747492073792  0.4432168852974669  0.5008436391561730
  0.0030441472853440  0.3271516362035385  0.6626851821616881
  0.1112209794260650  0.4505199131878896  0.8308820832613790
  0.9987564913873612  0.6755264231216529  0.9959565146099933
  0.1099080738136564  0.7784318825857355  0.1697416886159715
  0.9943048863785933  0.6691185240182591  0.3378903732926304
  0.1051314990683494  0.7851492076146513  0.4999781147745139
  0.9950277238955252  0.6732543703212244  0.6681121632487930
  0.3413165087362486  0.9982767794540024  0.9995657794157609
  0.4512751967132260  0.1068534131626535  0.1652564536348464
  0.3284941425674504  0.0025827137879801  0.3369369436566529
  0.4418173805921981  0.1065567702400614  0.4995922309271918
  0.3276835063035293  0.0036819158925780  0.6635498300886340
  0.4498628031959910  0.1076981274086108  0.8353347418112094
  0.3396141510423902  0.3273037906277452  0.9993052869363694
  0.4439313334340440  0.4456453609660116  0.1645871848193039
  0.3337005759134826  0.3329222605922908  0.3323837182772422
  0.4438454475153293  0.4448657859082559  0.5004578235070554
  0.3343339087411223  0.3322652225855194  0.6669479163074641
  0.4377846266715721  0.4500322416444007  0.8332159226907265
  0.3265869432056476  0.6711115482644558  0.9957598455263437
  0.4444634777294496  0.7777540874622275  0.1676425191101885
  0.3337922179161339  0.6661332379429581  0.3341271668004069
  0.4415286496773589  0.7845715555936366  0.5010075340222286
  0.3285906108616743  0.6687527959309065  0.6702727787023335
  0.4385638104518463  0.7794735027733211  0.8304963029483545
  0.7762473451008276  0.1064777615397077  0.1642057105985231
  0.6697304817524738  0.9949050640937926  0.3395527170466863
  0.7856331931169507  0.1061854926772341  0.5009995259656961
  0.6695906947742785  0.9936180481928361  0.6623438750326187
  0.7812282725055653  0.1013438954711035  0.8352687669955969
  0.6666350305334561  0.3275939990469965  0.9988106717779530
  0.7786608577657077  0.4447519821908585  0.1682067206943998
  0.6666769070787524  0.3322294863916468  0.3325038805878364
  0.7843823846061611  0.4422761827345312  0.4997679124490588
  0.6668115047744010  0.3324406612048847  0.6671945431022195
  0.7783870816849117  0.4450343628806337  0.8306321880502026
  0.6650771177071206  0.6724971859955531  0.9990852887026946
  0.7756903681094514  0.7833013348089395  0.1622436066793540
  0.6693822720814637  0.6698594182554274  0.3377201863345363
  0.6704530224950673  0.6705656017252295  0.6635492660991176
  0.7809095478038088  0.7833844592393291  0.8383571826775054
  0.1103569113427341  0.1092133524922687  0.0378206984896039
  0.9987678011944112  0.0027456282054530  0.2096041242460203
  0.1111405365386275  0.1102538939141908  0.3931303936678248
  0.0165597339097729  0.0142849618198966  0.5382880473869065
  0.1111626608652259  0.1114682591656759  0.7104417155971419
  0.0154728688231529  0.9672211494093048  0.8678715928094363
  0.1099955108275736  0.4475329337445402  0.0396161618898532
  0.0019251496919210  0.3303967733691451  0.2103879841977232
  0.1115972222687489  0.4444348768872501  0.3749772304438466
  0.0162562944344131  0.3007423176080337  0.5351070108989404
  0.1088223505056760  0.4458801887693369  0.7039766391266866
  0.0005431065666883  0.3341047370939876  0.8728617121168298
  0.1112002092310576  0.7777254315629278  0.0446678783922181
  0.9951298280901923  0.6687323720341922  0.2099161279959105
  0.1106512269644213  0.7781479466334318  0.3745360331175362
  0.9692258715973168  0.6837226138363377  0.5377131551749841
  0.1097711572033759  0.7786070021479929  0.7232774566803215
  0.0170148919147977  0.6824846862813985  0.8678075617271475
  0.4775046853582623  0.0945234950705327  0.0361813950574543
  0.3316593779351678  0.0020413978100606  0.2085773893859226
  0.4439044970493242  0.1113011998236928  0.3745538080302708
  0.3009967853468183  0.0165057342048129  0.5358251274201535
  0.4477509149466243  0.1077567823659749  0.7068928014769185
  0.3348358916325012  0.9994089769711962  0.8743195005638142
  0.4430730232067503  0.4474442923231337  0.0380974237036540
  0.3342377255386211  0.3318736647903719  0.2053845572345523
  0.4446673215893071  0.4438795558427628  0.3744544747202809
  0.3335614974647143  0.3321252086860227  0.5412085523831536
  0.4444727115949263  0.4444484936176778  0.7079955118640910
  0.3329332722059348  0.3322266865991068  0.8734081013619601
  0.4432659547046640  0.7765061314911179  0.0407521690260850
  0.3338084294479984  0.6660609234061852  0.2085661998815098
  0.4444161921428460  0.7779983363997331  0.3751859171639325
  0.3300239901320410  0.6682305983671171  0.5432065075131334
  0.4455202973817052  0.7790598459027223  0.7038291595570669
  0.3010131795436664  0.6839791463934901  0.8669914031969839
  0.7637120142828024  0.0938829599193554  0.0343879217827734
  0.6686855066054562  0.9971099701540993  0.2129808853542414
  0.7780198462224632  0.1114776164675462  0.3757900402906387
  0.6818154930986466  0.9687687756051275  0.5348989838545819
  0.7777455790558889  0.1074725254779665  0.7070574139712065
  0.6661285844569917  0.0008537098795784  0.8924576510503854
  0.7768410952274891  0.4452499660652691  0.0413472668936876
  0.6671329299183384  0.3309166547085027  0.2055770967975050
  0.7772740273917478  0.4444386182553899  0.3740250408700945
  0.6671479263827536  0.3329650544624840  0.5412746650823550
  0.7790572568865315  0.4457172626442727  0.7037223582854537
  0.6676763654490259  0.3319386910303805  0.8723280322296461
  0.7638143567214470  0.8085484886337682  0.0332131741358594
  0.6687070796168086  0.6694243674122262  0.2090746958692975
  0.7784720201398017  0.7772223843413499  0.3939633790638339
  0.6827648019920858  0.6824810703593158  0.5354524891475592
  0.7762884890975101  0.7804104749123155  0.7131288386027279
  0.6654719209227409  0.6673008918470416  0.8731947593518825
 
  0.00000000E+00  0.00000000E+00  0.00000000E+00
  0.00000000E+00  0.00000000E+00  0.00000000E+00
  0.00000000E+00  0.00000000E+00  0.00000000E+00
  0.00000000E+00  0.00000000E+00  0.00000000E+00
  0.00000000E+00  0.00000000E+00  0.00000000E+00
  0.00000000E+00  0.00000000E+00  0.00000000E+00
  0.00000000E+00  0.00000000E+00  0.00000000E+00
  0.00000000E+00  0.00000000E+00  0.00000000E+00
  0.00000000E+00  0.00000000E+00  0.00000000E+00
  0.00000000E+00  0.00000000E+00  0.00000000E+00
  0.00000000E+00  0.00000000E+00  0.00000000E+00
  0.00000000E+00  0.00000000E+00  0.00000000E+00
  0.00000000E+00  0.00000000E+00  0.00000000E+00
  0.00000000E+00  0.00000000E+00  0.00000000E+00
  0.00000000E+00  0.00000000E+00  0.00000000E+00
  0.00000000E+00  0.00000000E+00  0.00000000E+00
  0.00000000E+00  0.00000000E+00  0.00000000E+00
  0.00000000E+00  0.00000000E+00  0.00000000E+00
  0.00000000E+00  0.00000000E+00  0.00000000E+00
  0.00000000E+00  0.00000000E+00  0.00000000E+00
  0.00000000E+00  0.00000000E+00  0.00000000E+00
  0.00000000E+00  0.00000000E+00  0.00000000E+00
  0.00000000E+00  0.00000000E+00  0.00000000E+00
  0.00000000E+00  0.00000000E+00  0.00000000E+00
  0.00000000E+00  0.00000000E+00  0.00000000E+00
  0.00000000E+00  0.00000000E+00  0.00000000E+00
  0.00000000E+00  0.00000000E+00  0.00000000E+00
  0.00000000E+00  0.00000000E+00  0.00000000E+00
  0.00000000E+00  0.00000000E+00  0.00000000E+00
  0.00000000E+00  0.00000000E+00  0.00000000E+00
  0.00000000E+00  0.00000000E+00  0.00000000E+00
  0.00000000E+00  0.00000000E+00  0.00000000E+00
  0.00000000E+00  0.00000000E+00  0.00000000E+00
  0.00000000E+00  0.00000000E+00  0.00000000E+00
  0.00000000E+00  0.00000000E+00  0.00000000E+00
  0.00000000E+00  0.00000000E+00  0.00000000E+00
  0.00000000E+00  0.00000000E+00  0.00000000E+00
  0.00000000E+00  0.00000000E+00  0.00000000E+00
  0.00000000E+00  0.00000000E+00  0.00000000E+00
  0.00000000E+00  0.00000000E+00  0.00000000E+00
  0.00000000E+00  0.00000000E+00  0.00000000E+00
  0.00000000E+00  0.00000000E+00  0.00000000E+00
  0.00000000E+00  0.00000000E+00  0.00000000E+00
  0.00000000E+00  0.00000000E+00  0.00000000E+00
  0.00000000E+00  0.00000000E+00  0.00000000E+00
  0.00000000E+00  0.00000000E+00  0.00000000E+00
  0.00000000E+00  0.00000000E+00  0.00000000E+00
  0.00000000E+00  0.00000000E+00  0.00000000E+00
  0.00000000E+00  0.00000000E+00  0.00000000E+00
  0.00000000E+00  0.00000000E+00  0.00000000E+00
  0.00000000E+00  0.00000000E+00  0.00000000E+00
  0.00000000E+00  0.00000000E+00  0.00000000E+00
  0.00000000E+00  0.00000000E+00  0.00000000E+00
  0.00000000E+00  0.00000000E+00  0.00000000E+00
  0.00000000E+00  0.00000000E+00  0.00000000E+00
  0.00000000E+00  0.00000000E+00  0.00000000E+00
  0.00000000E+00  0.00000000E+00  0.00000000E+00
  0.00000000E+00  0.00000000E+00  0.00000000E+00
  0.00000000E+00  0.00000000E+00  0.00000000E+00
  0.00000000E+00  0.00000000E+00  0.00000000E+00
  0.00000000E+00  0.00000000E+00  0.00000000E+00
  0.00000000E+00  0.00000000E+00  0.00000000E+00
  0.00000000E+00  0.00000000E+00  0.00000000E+00
  0.00000000E+00  0.00000000E+00  0.00000000E+00
  0.00000000E+00  0.00000000E+00  0.00000000E+00
  0.00000000E+00  0.00000000E+00  0.00000000E+00
  0.00000000E+00  0.00000000E+00  0.00000000E+00
  0.00000000E+00  0.00000000E+00  0.00000000E+00
  0.00000000E+00  0.00000000E+00  0.00000000E+00
  0.00000000E+00  0.00000000E+00  0.00000000E+00
  0.00000000E+00  0.00000000E+00  0.00000000E+00
  0.00000000E+00  0.00000000E+00  0.00000000E+00
  0.00000000E+00  0.00000000E+00  0.00000000E+00
  0.00000000E+00  0.00000000E+00  0.00000000E+00
  0.00000000E+00  0.00000000E+00  0.00000000E+00
  0.00000000E+00  0.00000000E+00  0.00000000E+00
  0.00000000E+00  0.00000000E+00  0.00000000E+00
  0.00000000E+00  0.00000000E+00  0.00000000E+00
  0.00000000E+00  0.00000000E+00  0.00000000E+00
  0.00000000E+00  0.00000000E+00  0.00000000E+00
  0.00000000E+00  0.00000000E+00  0.00000000E+00
  0.00000000E+00  0.00000000E+00  0.00000000E+00
  0.00000000E+00  0.00000000E+00  0.00000000E+00
  0.00000000E+00  0.00000000E+00  0.00000000E+00
  0.00000000E+00  0.00000000E+00  0.00000000E+00
  0.00000000E+00  0.00000000E+00  0.00000000E+00
  0.00000000E+00  0.00000000E+00  0.00000000E+00
  0.00000000E+00  0.00000000E+00  0.00000000E+00
  0.00000000E+00  0.00000000E+00  0.00000000E+00
  0.00000000E+00  0.00000000E+00  0.00000000E+00
  0.00000000E+00  0.00000000E+00  0.00000000E+00
  0.00000000E+00  0.00000000E+00  0.00000000E+00
  0.00000000E+00  0.00000000E+00  0.00000000E+00
  0.00000000E+00  0.00000000E+00  0.00000000E+00
  0.00000000E+00  0.00000000E+00  0.00000000E+00
  0.00000000E+00  0.00000000E+00  0.00000000E+00
  0.00000000E+00  0.00000000E+00  0.00000000E+00
  0.00000000E+00  0.00000000E+00  0.00000000E+00
  0.00000000E+00  0.00000000E+00  0.00000000E+00
  0.00000000E+00  0.00000000E+00  0.00000000E+00
  0.00000000E+00  0.00000000E+00  0.00000000E+00
  0.00000000E+00  0.00000000E+00  0.00000000E+00
  0.00000000E+00  0.00000000E+00  0.00000000E+00
  0.00000000E+00  0.00000000E+00  0.00000000E+00
  0.00000000E+00  0.00000000E+00  0.00000000E+00
  0.00000000E+00  0.00000000E+00  0.00000000E+00
  0.00000000E+00  0.00000000E+00  0.00000000E+00
  0.00000000E+00  0.00000000E+00  0.00000000E+00
